Al4
1.0
4.050000 0.000000 0.000000
0.000000 4.050000 0.000000
0.000000 0.000000 4.050000
Al
4
direct
-0.001367 -0.001367 -0.001367 Al
-0.001367 0.498633 0.498633 Al
0.498633 -0.001367 0.498633 Al
0.498633 0.498633 -0.001367 Al
