Automatic kpoint scheme
0
Gamma
16 16 16
