Surf-3_1_0@vac25@size20
1.0
0.000000 0.000000 -20.250000
8.100000 -24.300000 -0.000000
-47.385000 -15.795000 0.000000
Al
720
direct
0.000000 0.120833 0.326923 Al
0.000000 0.620833 0.326923 Al
0.200000 0.120833 0.326923 Al
0.200000 0.620833 0.326923 Al
0.400000 0.120833 0.326923 Al
0.400000 0.620833 0.326923 Al
0.600000 0.120833 0.326923 Al
0.600000 0.620833 0.326923 Al
0.800000 0.120833 0.326923 Al
0.800000 0.620833 0.326923 Al
0.000000 0.970833 0.301282 Al
0.000000 0.470833 0.301282 Al
0.200000 0.970833 0.301282 Al
0.200000 0.470833 0.301282 Al
0.400000 0.970833 0.301282 Al
0.400000 0.470833 0.301282 Al
0.600000 0.970833 0.301282 Al
0.600000 0.470833 0.301282 Al
0.800000 0.970833 0.301282 Al
0.800000 0.470833 0.301282 Al
0.000000 0.820833 0.275641 Al
0.000000 0.320833 0.275641 Al
0.200000 0.820833 0.275641 Al
0.200000 0.320833 0.275641 Al
0.400000 0.820833 0.275641 Al
0.400000 0.320833 0.275641 Al
0.600000 0.820833 0.275641 Al
0.600000 0.320833 0.275641 Al
0.800000 0.820833 0.275641 Al
0.800000 0.320833 0.275641 Al
0.100000 0.045833 0.314103 Al
0.100000 0.545833 0.314103 Al
0.300000 0.045833 0.314103 Al
0.300000 0.545833 0.314103 Al
0.500000 0.045833 0.314103 Al
0.500000 0.545833 0.314103 Al
0.700000 0.045833 0.314103 Al
0.700000 0.545833 0.314103 Al
0.900000 0.045833 0.314103 Al
0.900000 0.545833 0.314103 Al
0.100000 0.895833 0.288462 Al
0.100000 0.395833 0.288462 Al
0.300000 0.895833 0.288462 Al
0.300000 0.395833 0.288462 Al
0.500000 0.895833 0.288462 Al
0.500000 0.395833 0.288462 Al
0.700000 0.895833 0.288462 Al
0.700000 0.395833 0.288462 Al
0.900000 0.895833 0.288462 Al
0.900000 0.395833 0.288462 Al
0.100000 0.195833 0.339744 Al
0.100000 0.695833 0.339744 Al
0.300000 0.195833 0.339744 Al
0.300000 0.695833 0.339744 Al
0.500000 0.195833 0.339744 Al
0.500000 0.695833 0.339744 Al
0.700000 0.195833 0.339744 Al
0.700000 0.695833 0.339744 Al
0.900000 0.195833 0.339744 Al
0.900000 0.695833 0.339744 Al
0.100000 0.145833 0.288462 Al
0.100000 0.645833 0.288462 Al
0.300000 0.145833 0.288462 Al
0.300000 0.645833 0.288462 Al
0.500000 0.145833 0.288462 Al
0.500000 0.645833 0.288462 Al
0.700000 0.145833 0.288462 Al
0.700000 0.645833 0.288462 Al
0.900000 0.145833 0.288462 Al
0.900000 0.645833 0.288462 Al
0.100000 0.945833 0.339744 Al
0.100000 0.445833 0.339744 Al
0.300000 0.945833 0.339744 Al
0.300000 0.445833 0.339744 Al
0.500000 0.945833 0.339744 Al
0.500000 0.445833 0.339744 Al
0.700000 0.945833 0.339744 Al
0.700000 0.445833 0.339744 Al
0.900000 0.945833 0.339744 Al
0.900000 0.445833 0.339744 Al
0.100000 0.795833 0.314103 Al
0.100000 0.295833 0.314103 Al
0.300000 0.795833 0.314103 Al
0.300000 0.295833 0.314103 Al
0.500000 0.795833 0.314103 Al
0.500000 0.295833 0.314103 Al
0.700000 0.795833 0.314103 Al
0.700000 0.295833 0.314103 Al
0.900000 0.795833 0.314103 Al
0.900000 0.295833 0.314103 Al
0.000000 0.070833 0.275641 Al
0.000000 0.570833 0.275641 Al
0.200000 0.070833 0.275641 Al
0.200000 0.570833 0.275641 Al
0.400000 0.070833 0.275641 Al
0.400000 0.570833 0.275641 Al
0.600000 0.070833 0.275641 Al
0.600000 0.570833 0.275641 Al
0.800000 0.070833 0.275641 Al
0.800000 0.570833 0.275641 Al
0.000000 0.870833 0.326923 Al
0.000000 0.370833 0.326923 Al
0.200000 0.870833 0.326923 Al
0.200000 0.370833 0.326923 Al
0.400000 0.870833 0.326923 Al
0.400000 0.370833 0.326923 Al
0.600000 0.870833 0.326923 Al
0.600000 0.370833 0.326923 Al
0.800000 0.870833 0.326923 Al
0.800000 0.370833 0.326923 Al
0.000000 0.220833 0.301282 Al
0.000000 0.720833 0.301282 Al
0.200000 0.220833 0.301282 Al
0.200000 0.720833 0.301282 Al
0.400000 0.220833 0.301282 Al
0.400000 0.720833 0.301282 Al
0.600000 0.220833 0.301282 Al
0.600000 0.720833 0.301282 Al
0.800000 0.220833 0.301282 Al
0.800000 0.720833 0.301282 Al
0.000000 0.070833 0.403846 Al
0.000000 0.570833 0.403846 Al
0.200000 0.070833 0.403846 Al
0.200000 0.570833 0.403846 Al
0.400000 0.070833 0.403846 Al
0.400000 0.570833 0.403846 Al
0.600000 0.070833 0.403846 Al
0.600000 0.570833 0.403846 Al
0.800000 0.070833 0.403846 Al
0.800000 0.570833 0.403846 Al
0.000000 0.920833 0.378205 Al
0.000000 0.420833 0.378205 Al
0.200000 0.920833 0.378205 Al
0.200000 0.420833 0.378205 Al
0.400000 0.920833 0.378205 Al
0.400000 0.420833 0.378205 Al
0.600000 0.920833 0.378205 Al
0.600000 0.420833 0.378205 Al
0.800000 0.920833 0.378205 Al
0.800000 0.420833 0.378205 Al
0.000000 0.770833 0.352564 Al
0.000000 0.270833 0.352564 Al
0.200000 0.770833 0.352564 Al
0.200000 0.270833 0.352564 Al
0.400000 0.770833 0.352564 Al
0.400000 0.270833 0.352564 Al
0.600000 0.770833 0.352564 Al
0.600000 0.270833 0.352564 Al
0.800000 0.770833 0.352564 Al
0.800000 0.270833 0.352564 Al
0.100000 0.995833 0.391026 Al
0.100000 0.495833 0.391026 Al
0.300000 0.995833 0.391026 Al
0.300000 0.495833 0.391026 Al
0.500000 0.995833 0.391026 Al
0.500000 0.495833 0.391026 Al
0.700000 0.995833 0.391026 Al
0.700000 0.495833 0.391026 Al
0.900000 0.995833 0.391026 Al
0.900000 0.495833 0.391026 Al
0.100000 0.845833 0.365385 Al
0.100000 0.345833 0.365385 Al
0.300000 0.845833 0.365385 Al
0.300000 0.345833 0.365385 Al
0.500000 0.845833 0.365385 Al
0.500000 0.345833 0.365385 Al
0.700000 0.845833 0.365385 Al
0.700000 0.345833 0.365385 Al
0.900000 0.845833 0.365385 Al
0.900000 0.345833 0.365385 Al
0.100000 0.145833 0.416667 Al
0.100000 0.645833 0.416667 Al
0.300000 0.145833 0.416667 Al
0.300000 0.645833 0.416667 Al
0.500000 0.145833 0.416667 Al
0.500000 0.645833 0.416667 Al
0.700000 0.145833 0.416667 Al
0.700000 0.645833 0.416667 Al
0.900000 0.145833 0.416667 Al
0.900000 0.645833 0.416667 Al
0.100000 0.095833 0.365385 Al
0.100000 0.595833 0.365385 Al
0.300000 0.095833 0.365385 Al
0.300000 0.595833 0.365385 Al
0.500000 0.095833 0.365385 Al
0.500000 0.595833 0.365385 Al
0.700000 0.095833 0.365385 Al
0.700000 0.595833 0.365385 Al
0.900000 0.095833 0.365385 Al
0.900000 0.595833 0.365385 Al
0.100000 0.895833 0.416667 Al
0.100000 0.395833 0.416667 Al
0.300000 0.895833 0.416667 Al
0.300000 0.395833 0.416667 Al
0.500000 0.895833 0.416667 Al
0.500000 0.395833 0.416667 Al
0.700000 0.895833 0.416667 Al
0.700000 0.395833 0.416667 Al
0.900000 0.895833 0.416667 Al
0.900000 0.395833 0.416667 Al
0.100000 0.745833 0.391026 Al
0.100000 0.245833 0.391026 Al
0.300000 0.745833 0.391026 Al
0.300000 0.245833 0.391026 Al
0.500000 0.745833 0.391026 Al
0.500000 0.245833 0.391026 Al
0.700000 0.745833 0.391026 Al
0.700000 0.245833 0.391026 Al
0.900000 0.745833 0.391026 Al
0.900000 0.245833 0.391026 Al
0.000000 0.020833 0.352564 Al
0.000000 0.520833 0.352564 Al
0.200000 0.020833 0.352564 Al
0.200000 0.520833 0.352564 Al
0.400000 0.020833 0.352564 Al
0.400000 0.520833 0.352564 Al
0.600000 0.020833 0.352564 Al
0.600000 0.520833 0.352564 Al
0.800000 0.020833 0.352564 Al
0.800000 0.520833 0.352564 Al
0.000000 0.820833 0.403846 Al
0.000000 0.320833 0.403846 Al
0.200000 0.820833 0.403846 Al
0.200000 0.320833 0.403846 Al
0.400000 0.820833 0.403846 Al
0.400000 0.320833 0.403846 Al
0.600000 0.820833 0.403846 Al
0.600000 0.320833 0.403846 Al
0.800000 0.820833 0.403846 Al
0.800000 0.320833 0.403846 Al
0.000000 0.170833 0.378205 Al
0.000000 0.670833 0.378205 Al
0.200000 0.170833 0.378205 Al
0.200000 0.670833 0.378205 Al
0.400000 0.170833 0.378205 Al
0.400000 0.670833 0.378205 Al
0.600000 0.170833 0.378205 Al
0.600000 0.670833 0.378205 Al
0.800000 0.170833 0.378205 Al
0.800000 0.670833 0.378205 Al
0.000000 0.020833 0.480769 Al
0.000000 0.520833 0.480769 Al
0.200000 0.020833 0.480769 Al
0.200000 0.520833 0.480769 Al
0.400000 0.020833 0.480769 Al
0.400000 0.520833 0.480769 Al
0.600000 0.020833 0.480769 Al
0.600000 0.520833 0.480769 Al
0.800000 0.020833 0.480769 Al
0.800000 0.520833 0.480769 Al
0.000000 0.870833 0.455128 Al
0.000000 0.370833 0.455128 Al
0.200000 0.870833 0.455128 Al
0.200000 0.370833 0.455128 Al
0.400000 0.870833 0.455128 Al
0.400000 0.370833 0.455128 Al
0.600000 0.870833 0.455128 Al
0.600000 0.370833 0.455128 Al
0.800000 0.870833 0.455128 Al
0.800000 0.370833 0.455128 Al
0.000000 0.720833 0.429487 Al
0.000000 0.220833 0.429487 Al
0.200000 0.720833 0.429487 Al
0.200000 0.220833 0.429487 Al
0.400000 0.720833 0.429487 Al
0.400000 0.220833 0.429487 Al
0.600000 0.720833 0.429487 Al
0.600000 0.220833 0.429487 Al
0.800000 0.720833 0.429487 Al
0.800000 0.220833 0.429487 Al
0.100000 0.945833 0.467949 Al
0.100000 0.445833 0.467949 Al
0.300000 0.945833 0.467949 Al
0.300000 0.445833 0.467949 Al
0.500000 0.945833 0.467949 Al
0.500000 0.445833 0.467949 Al
0.700000 0.945833 0.467949 Al
0.700000 0.445833 0.467949 Al
0.900000 0.945833 0.467949 Al
0.900000 0.445833 0.467949 Al
0.100000 0.795833 0.442308 Al
0.100000 0.295833 0.442308 Al
0.300000 0.795833 0.442308 Al
0.300000 0.295833 0.442308 Al
0.500000 0.795833 0.442308 Al
0.500000 0.295833 0.442308 Al
0.700000 0.795833 0.442308 Al
0.700000 0.295833 0.442308 Al
0.900000 0.795833 0.442308 Al
0.900000 0.295833 0.442308 Al
0.100000 0.095833 0.493590 Al
0.100000 0.595833 0.493590 Al
0.300000 0.095833 0.493590 Al
0.300000 0.595833 0.493590 Al
0.500000 0.095833 0.493590 Al
0.500000 0.595833 0.493590 Al
0.700000 0.095833 0.493590 Al
0.700000 0.595833 0.493590 Al
0.900000 0.095833 0.493590 Al
0.900000 0.595833 0.493590 Al
0.100000 0.045833 0.442308 Al
0.100000 0.545833 0.442308 Al
0.300000 0.045833 0.442308 Al
0.300000 0.545833 0.442308 Al
0.500000 0.045833 0.442308 Al
0.500000 0.545833 0.442308 Al
0.700000 0.045833 0.442308 Al
0.700000 0.545833 0.442308 Al
0.900000 0.045833 0.442308 Al
0.900000 0.545833 0.442308 Al
0.100000 0.845833 0.493590 Al
0.100000 0.345833 0.493590 Al
0.300000 0.845833 0.493590 Al
0.300000 0.345833 0.493590 Al
0.500000 0.845833 0.493590 Al
0.500000 0.345833 0.493590 Al
0.700000 0.845833 0.493590 Al
0.700000 0.345833 0.493590 Al
0.900000 0.845833 0.493590 Al
0.900000 0.345833 0.493590 Al
0.100000 0.695833 0.467949 Al
0.100000 0.195833 0.467949 Al
0.300000 0.695833 0.467949 Al
0.300000 0.195833 0.467949 Al
0.500000 0.695833 0.467949 Al
0.500000 0.195833 0.467949 Al
0.700000 0.695833 0.467949 Al
0.700000 0.195833 0.467949 Al
0.900000 0.695833 0.467949 Al
0.900000 0.195833 0.467949 Al
0.000000 0.970833 0.429487 Al
0.000000 0.470833 0.429487 Al
0.200000 0.970833 0.429487 Al
0.200000 0.470833 0.429487 Al
0.400000 0.970833 0.429487 Al
0.400000 0.470833 0.429487 Al
0.600000 0.970833 0.429487 Al
0.600000 0.470833 0.429487 Al
0.800000 0.970833 0.429487 Al
0.800000 0.470833 0.429487 Al
0.000000 0.770833 0.480769 Al
0.000000 0.270833 0.480769 Al
0.200000 0.770833 0.480769 Al
0.200000 0.270833 0.480769 Al
0.400000 0.770833 0.480769 Al
0.400000 0.270833 0.480769 Al
0.600000 0.770833 0.480769 Al
0.600000 0.270833 0.480769 Al
0.800000 0.770833 0.480769 Al
0.800000 0.270833 0.480769 Al
0.000000 0.120833 0.455128 Al
0.000000 0.620833 0.455128 Al
0.200000 0.120833 0.455128 Al
0.200000 0.620833 0.455128 Al
0.400000 0.120833 0.455128 Al
0.400000 0.620833 0.455128 Al
0.600000 0.120833 0.455128 Al
0.600000 0.620833 0.455128 Al
0.800000 0.120833 0.455128 Al
0.800000 0.620833 0.455128 Al
0.000000 0.970833 0.557692 Al
0.000000 0.470833 0.557692 Al
0.200000 0.970833 0.557692 Al
0.200000 0.470833 0.557692 Al
0.400000 0.970833 0.557692 Al
0.400000 0.470833 0.557692 Al
0.600000 0.970833 0.557692 Al
0.600000 0.470833 0.557692 Al
0.800000 0.970833 0.557692 Al
0.800000 0.470833 0.557692 Al
0.000000 0.820833 0.532051 Al
0.000000 0.320833 0.532051 Al
0.200000 0.820833 0.532051 Al
0.200000 0.320833 0.532051 Al
0.400000 0.820833 0.532051 Al
0.400000 0.320833 0.532051 Al
0.600000 0.820833 0.532051 Al
0.600000 0.320833 0.532051 Al
0.800000 0.820833 0.532051 Al
0.800000 0.320833 0.532051 Al
0.000000 0.670833 0.506410 Al
0.000000 0.170833 0.506410 Al
0.200000 0.670833 0.506410 Al
0.200000 0.170833 0.506410 Al
0.400000 0.670833 0.506410 Al
0.400000 0.170833 0.506410 Al
0.600000 0.670833 0.506410 Al
0.600000 0.170833 0.506410 Al
0.800000 0.670833 0.506410 Al
0.800000 0.170833 0.506410 Al
0.100000 0.895833 0.544872 Al
0.100000 0.395833 0.544872 Al
0.300000 0.895833 0.544872 Al
0.300000 0.395833 0.544872 Al
0.500000 0.895833 0.544872 Al
0.500000 0.395833 0.544872 Al
0.700000 0.895833 0.544872 Al
0.700000 0.395833 0.544872 Al
0.900000 0.895833 0.544872 Al
0.900000 0.395833 0.544872 Al
0.100000 0.745833 0.519231 Al
0.100000 0.245833 0.519231 Al
0.300000 0.745833 0.519231 Al
0.300000 0.245833 0.519231 Al
0.500000 0.745833 0.519231 Al
0.500000 0.245833 0.519231 Al
0.700000 0.745833 0.519231 Al
0.700000 0.245833 0.519231 Al
0.900000 0.745833 0.519231 Al
0.900000 0.245833 0.519231 Al
0.100000 0.045833 0.570513 Al
0.100000 0.545833 0.570513 Al
0.300000 0.045833 0.570513 Al
0.300000 0.545833 0.570513 Al
0.500000 0.045833 0.570513 Al
0.500000 0.545833 0.570513 Al
0.700000 0.045833 0.570513 Al
0.700000 0.545833 0.570513 Al
0.900000 0.045833 0.570513 Al
0.900000 0.545833 0.570513 Al
0.100000 0.995833 0.519231 Al
0.100000 0.495833 0.519231 Al
0.300000 0.995833 0.519231 Al
0.300000 0.495833 0.519231 Al
0.500000 0.995833 0.519231 Al
0.500000 0.495833 0.519231 Al
0.700000 0.995833 0.519231 Al
0.700000 0.495833 0.519231 Al
0.900000 0.995833 0.519231 Al
0.900000 0.495833 0.519231 Al
0.100000 0.795833 0.570513 Al
0.100000 0.295833 0.570513 Al
0.300000 0.795833 0.570513 Al
0.300000 0.295833 0.570513 Al
0.500000 0.795833 0.570513 Al
0.500000 0.295833 0.570513 Al
0.700000 0.795833 0.570513 Al
0.700000 0.295833 0.570513 Al
0.900000 0.795833 0.570513 Al
0.900000 0.295833 0.570513 Al
0.100000 0.645833 0.544872 Al
0.100000 0.145833 0.544872 Al
0.300000 0.645833 0.544872 Al
0.300000 0.145833 0.544872 Al
0.500000 0.645833 0.544872 Al
0.500000 0.145833 0.544872 Al
0.700000 0.645833 0.544872 Al
0.700000 0.145833 0.544872 Al
0.900000 0.645833 0.544872 Al
0.900000 0.145833 0.544872 Al
0.000000 0.920833 0.506410 Al
0.000000 0.420833 0.506410 Al
0.200000 0.920833 0.506410 Al
0.200000 0.420833 0.506410 Al
0.400000 0.920833 0.506410 Al
0.400000 0.420833 0.506410 Al
0.600000 0.920833 0.506410 Al
0.600000 0.420833 0.506410 Al
0.800000 0.920833 0.506410 Al
0.800000 0.420833 0.506410 Al
0.000000 0.720833 0.557692 Al
0.000000 0.220833 0.557692 Al
0.200000 0.720833 0.557692 Al
0.200000 0.220833 0.557692 Al
0.400000 0.720833 0.557692 Al
0.400000 0.220833 0.557692 Al
0.600000 0.720833 0.557692 Al
0.600000 0.220833 0.557692 Al
0.800000 0.720833 0.557692 Al
0.800000 0.220833 0.557692 Al
0.000000 0.070833 0.532051 Al
0.000000 0.570833 0.532051 Al
0.200000 0.070833 0.532051 Al
0.200000 0.570833 0.532051 Al
0.400000 0.070833 0.532051 Al
0.400000 0.570833 0.532051 Al
0.600000 0.070833 0.532051 Al
0.600000 0.570833 0.532051 Al
0.800000 0.070833 0.532051 Al
0.800000 0.570833 0.532051 Al
0.000000 0.920833 0.634615 Al
0.000000 0.420833 0.634615 Al
0.200000 0.920833 0.634615 Al
0.200000 0.420833 0.634615 Al
0.400000 0.920833 0.634615 Al
0.400000 0.420833 0.634615 Al
0.600000 0.920833 0.634615 Al
0.600000 0.420833 0.634615 Al
0.800000 0.920833 0.634615 Al
0.800000 0.420833 0.634615 Al
0.000000 0.770833 0.608974 Al
0.000000 0.270833 0.608974 Al
0.200000 0.770833 0.608974 Al
0.200000 0.270833 0.608974 Al
0.400000 0.770833 0.608974 Al
0.400000 0.270833 0.608974 Al
0.600000 0.770833 0.608974 Al
0.600000 0.270833 0.608974 Al
0.800000 0.770833 0.608974 Al
0.800000 0.270833 0.608974 Al
0.000000 0.620833 0.583333 Al
0.000000 0.120833 0.583333 Al
0.200000 0.620833 0.583333 Al
0.200000 0.120833 0.583333 Al
0.400000 0.620833 0.583333 Al
0.400000 0.120833 0.583333 Al
0.600000 0.620833 0.583333 Al
0.600000 0.120833 0.583333 Al
0.800000 0.620833 0.583333 Al
0.800000 0.120833 0.583333 Al
0.100000 0.845833 0.621795 Al
0.100000 0.345833 0.621795 Al
0.300000 0.845833 0.621795 Al
0.300000 0.345833 0.621795 Al
0.500000 0.845833 0.621795 Al
0.500000 0.345833 0.621795 Al
0.700000 0.845833 0.621795 Al
0.700000 0.345833 0.621795 Al
0.900000 0.845833 0.621795 Al
0.900000 0.345833 0.621795 Al
0.100000 0.695833 0.596154 Al
0.100000 0.195833 0.596154 Al
0.300000 0.695833 0.596154 Al
0.300000 0.195833 0.596154 Al
0.500000 0.695833 0.596154 Al
0.500000 0.195833 0.596154 Al
0.700000 0.695833 0.596154 Al
0.700000 0.195833 0.596154 Al
0.900000 0.695833 0.596154 Al
0.900000 0.195833 0.596154 Al
0.100000 0.995833 0.647436 Al
0.100000 0.495833 0.647436 Al
0.300000 0.995833 0.647436 Al
0.300000 0.495833 0.647436 Al
0.500000 0.995833 0.647436 Al
0.500000 0.495833 0.647436 Al
0.700000 0.995833 0.647436 Al
0.700000 0.495833 0.647436 Al
0.900000 0.995833 0.647436 Al
0.900000 0.495833 0.647436 Al
0.100000 0.945833 0.596154 Al
0.100000 0.445833 0.596154 Al
0.300000 0.945833 0.596154 Al
0.300000 0.445833 0.596154 Al
0.500000 0.945833 0.596154 Al
0.500000 0.445833 0.596154 Al
0.700000 0.945833 0.596154 Al
0.700000 0.445833 0.596154 Al
0.900000 0.945833 0.596154 Al
0.900000 0.445833 0.596154 Al
0.100000 0.745833 0.647436 Al
0.100000 0.245833 0.647436 Al
0.300000 0.745833 0.647436 Al
0.300000 0.245833 0.647436 Al
0.500000 0.745833 0.647436 Al
0.500000 0.245833 0.647436 Al
0.700000 0.745833 0.647436 Al
0.700000 0.245833 0.647436 Al
0.900000 0.745833 0.647436 Al
0.900000 0.245833 0.647436 Al
0.100000 0.595833 0.621795 Al
0.100000 0.095833 0.621795 Al
0.300000 0.595833 0.621795 Al
0.300000 0.095833 0.621795 Al
0.500000 0.595833 0.621795 Al
0.500000 0.095833 0.621795 Al
0.700000 0.595833 0.621795 Al
0.700000 0.095833 0.621795 Al
0.900000 0.595833 0.621795 Al
0.900000 0.095833 0.621795 Al
0.000000 0.870833 0.583333 Al
0.000000 0.370833 0.583333 Al
0.200000 0.870833 0.583333 Al
0.200000 0.370833 0.583333 Al
0.400000 0.870833 0.583333 Al
0.400000 0.370833 0.583333 Al
0.600000 0.870833 0.583333 Al
0.600000 0.370833 0.583333 Al
0.800000 0.870833 0.583333 Al
0.800000 0.370833 0.583333 Al
0.000000 0.670833 0.634615 Al
0.000000 0.170833 0.634615 Al
0.200000 0.670833 0.634615 Al
0.200000 0.170833 0.634615 Al
0.400000 0.670833 0.634615 Al
0.400000 0.170833 0.634615 Al
0.600000 0.670833 0.634615 Al
0.600000 0.170833 0.634615 Al
0.800000 0.670833 0.634615 Al
0.800000 0.170833 0.634615 Al
0.000000 0.020833 0.608974 Al
0.000000 0.520833 0.608974 Al
0.200000 0.020833 0.608974 Al
0.200000 0.520833 0.608974 Al
0.400000 0.020833 0.608974 Al
0.400000 0.520833 0.608974 Al
0.600000 0.020833 0.608974 Al
0.600000 0.520833 0.608974 Al
0.800000 0.020833 0.608974 Al
0.800000 0.520833 0.608974 Al
0.000000 0.870833 0.711538 Al
0.000000 0.370833 0.711538 Al
0.200000 0.870833 0.711538 Al
0.200000 0.370833 0.711538 Al
0.400000 0.870833 0.711538 Al
0.400000 0.370833 0.711538 Al
0.600000 0.870833 0.711538 Al
0.600000 0.370833 0.711538 Al
0.800000 0.870833 0.711538 Al
0.800000 0.370833 0.711538 Al
0.000000 0.720833 0.685897 Al
0.000000 0.220833 0.685897 Al
0.200000 0.720833 0.685897 Al
0.200000 0.220833 0.685897 Al
0.400000 0.720833 0.685897 Al
0.400000 0.220833 0.685897 Al
0.600000 0.720833 0.685897 Al
0.600000 0.220833 0.685897 Al
0.800000 0.720833 0.685897 Al
0.800000 0.220833 0.685897 Al
0.000000 0.570833 0.660256 Al
0.000000 0.070833 0.660256 Al
0.200000 0.570833 0.660256 Al
0.200000 0.070833 0.660256 Al
0.400000 0.570833 0.660256 Al
0.400000 0.070833 0.660256 Al
0.600000 0.570833 0.660256 Al
0.600000 0.070833 0.660256 Al
0.800000 0.570833 0.660256 Al
0.800000 0.070833 0.660256 Al
0.100000 0.795833 0.698718 Al
0.100000 0.295833 0.698718 Al
0.300000 0.795833 0.698718 Al
0.300000 0.295833 0.698718 Al
0.500000 0.795833 0.698718 Al
0.500000 0.295833 0.698718 Al
0.700000 0.795833 0.698718 Al
0.700000 0.295833 0.698718 Al
0.900000 0.795833 0.698718 Al
0.900000 0.295833 0.698718 Al
0.100000 0.645833 0.673077 Al
0.100000 0.145833 0.673077 Al
0.300000 0.645833 0.673077 Al
0.300000 0.145833 0.673077 Al
0.500000 0.645833 0.673077 Al
0.500000 0.145833 0.673077 Al
0.700000 0.645833 0.673077 Al
0.700000 0.145833 0.673077 Al
0.900000 0.645833 0.673077 Al
0.900000 0.145833 0.673077 Al
0.100000 0.945833 0.724359 Al
0.100000 0.445833 0.724359 Al
0.300000 0.945833 0.724359 Al
0.300000 0.445833 0.724359 Al
0.500000 0.945833 0.724359 Al
0.500000 0.445833 0.724359 Al
0.700000 0.945833 0.724359 Al
0.700000 0.445833 0.724359 Al
0.900000 0.945833 0.724359 Al
0.900000 0.445833 0.724359 Al
0.100000 0.895833 0.673077 Al
0.100000 0.395833 0.673077 Al
0.300000 0.895833 0.673077 Al
0.300000 0.395833 0.673077 Al
0.500000 0.895833 0.673077 Al
0.500000 0.395833 0.673077 Al
0.700000 0.895833 0.673077 Al
0.700000 0.395833 0.673077 Al
0.900000 0.895833 0.673077 Al
0.900000 0.395833 0.673077 Al
0.100000 0.695833 0.724359 Al
0.100000 0.195833 0.724359 Al
0.300000 0.695833 0.724359 Al
0.300000 0.195833 0.724359 Al
0.500000 0.695833 0.724359 Al
0.500000 0.195833 0.724359 Al
0.700000 0.695833 0.724359 Al
0.700000 0.195833 0.724359 Al
0.900000 0.695833 0.724359 Al
0.900000 0.195833 0.724359 Al
0.100000 0.545833 0.698718 Al
0.100000 0.045833 0.698718 Al
0.300000 0.545833 0.698718 Al
0.300000 0.045833 0.698718 Al
0.500000 0.545833 0.698718 Al
0.500000 0.045833 0.698718 Al
0.700000 0.545833 0.698718 Al
0.700000 0.045833 0.698718 Al
0.900000 0.545833 0.698718 Al
0.900000 0.045833 0.698718 Al
0.000000 0.820833 0.660256 Al
0.000000 0.320833 0.660256 Al
0.200000 0.820833 0.660256 Al
0.200000 0.320833 0.660256 Al
0.400000 0.820833 0.660256 Al
0.400000 0.320833 0.660256 Al
0.600000 0.820833 0.660256 Al
0.600000 0.320833 0.660256 Al
0.800000 0.820833 0.660256 Al
0.800000 0.320833 0.660256 Al
0.000000 0.620833 0.711538 Al
0.000000 0.120833 0.711538 Al
0.200000 0.620833 0.711538 Al
0.200000 0.120833 0.711538 Al
0.400000 0.620833 0.711538 Al
0.400000 0.120833 0.711538 Al
0.600000 0.620833 0.711538 Al
0.600000 0.120833 0.711538 Al
0.800000 0.620833 0.711538 Al
0.800000 0.120833 0.711538 Al
0.000000 0.970833 0.685897 Al
0.000000 0.470833 0.685897 Al
0.200000 0.970833 0.685897 Al
0.200000 0.470833 0.685897 Al
0.400000 0.970833 0.685897 Al
0.400000 0.470833 0.685897 Al
0.600000 0.970833 0.685897 Al
0.600000 0.470833 0.685897 Al
0.800000 0.970833 0.685897 Al
0.800000 0.470833 0.685897 Al
