Surf-1_1_1@vac25@size20
1.0
-20.250000 20.250000 0.000000
-20.250000 0.000000 20.250000
27.000000 27.000000 27.000000
Al
900
direct
0.800000 0.600000 0.300000 Al
0.800000 0.800000 0.300000 Al
0.800000 0.000000 0.300000 Al
0.800000 0.200000 0.300000 Al
0.800000 0.400000 0.300000 Al
1.000000 0.600000 0.300000 Al
0.000000 0.800000 0.300000 Al
0.000000 0.000000 0.300000 Al
1.000000 0.200000 0.300000 Al
0.000000 0.400000 0.300000 Al
0.200000 0.600000 0.300000 Al
0.200000 0.800000 0.300000 Al
0.200000 0.000000 0.300000 Al
0.200000 0.200000 0.300000 Al
0.200000 0.400000 0.300000 Al
0.400000 0.600000 0.300000 Al
0.400000 0.800000 0.300000 Al
0.400000 0.000000 0.300000 Al
0.400000 0.200000 0.300000 Al
0.400000 0.400000 0.300000 Al
0.600000 0.600000 0.300000 Al
0.600000 0.800000 0.300000 Al
0.600000 0.000000 0.300000 Al
0.600000 0.200000 0.300000 Al
0.600000 0.400000 0.300000 Al
0.900000 0.700000 0.300000 Al
0.900000 0.900000 0.300000 Al
0.900000 0.100000 0.300000 Al
0.900000 0.300000 0.300000 Al
0.900000 0.500000 0.300000 Al
0.100000 0.700000 0.300000 Al
0.100000 0.900000 0.300000 Al
0.100000 0.100000 0.300000 Al
0.100000 0.300000 0.300000 Al
0.100000 0.500000 0.300000 Al
0.300000 0.700000 0.300000 Al
0.300000 0.900000 0.300000 Al
0.300000 0.100000 0.300000 Al
0.300000 0.300000 0.300000 Al
0.300000 0.500000 0.300000 Al
0.500000 0.700000 0.300000 Al
0.500000 0.900000 0.300000 Al
0.500000 0.100000 0.300000 Al
0.500000 0.300000 0.300000 Al
0.500000 0.500000 0.300000 Al
0.700000 0.700000 0.300000 Al
0.700000 0.900000 0.300000 Al
0.700000 0.100000 0.300000 Al
0.700000 0.300000 0.300000 Al
0.700000 0.500000 0.300000 Al
0.800000 0.700000 0.300000 Al
0.800000 0.900000 0.300000 Al
0.800000 0.100000 0.300000 Al
0.800000 0.300000 0.300000 Al
0.800000 0.500000 0.300000 Al
1.000000 0.700000 0.300000 Al
1.000000 0.900000 0.300000 Al
1.000000 0.100000 0.300000 Al
1.000000 0.300000 0.300000 Al
1.000000 0.500000 0.300000 Al
0.200000 0.700000 0.300000 Al
0.200000 0.900000 0.300000 Al
0.200000 0.100000 0.300000 Al
0.200000 0.300000 0.300000 Al
0.200000 0.500000 0.300000 Al
0.400000 0.700000 0.300000 Al
0.400000 0.900000 0.300000 Al
0.400000 0.100000 0.300000 Al
0.400000 0.300000 0.300000 Al
0.400000 0.500000 0.300000 Al
0.600000 0.700000 0.300000 Al
0.600000 0.900000 0.300000 Al
0.600000 0.100000 0.300000 Al
0.600000 0.300000 0.300000 Al
0.600000 0.500000 0.300000 Al
0.900000 0.600000 0.300000 Al
0.900000 0.800000 0.300000 Al
0.900000 0.000000 0.300000 Al
0.900000 0.200000 0.300000 Al
0.900000 0.400000 0.300000 Al
0.100000 0.600000 0.300000 Al
0.100000 0.800000 0.300000 Al
0.100000 0.000000 0.300000 Al
0.100000 0.200000 0.300000 Al
0.100000 0.400000 0.300000 Al
0.300000 0.600000 0.300000 Al
0.300000 0.800000 0.300000 Al
0.300000 0.000000 0.300000 Al
0.300000 0.200000 0.300000 Al
0.300000 0.400000 0.300000 Al
0.500000 0.600000 0.300000 Al
0.500000 0.800000 0.300000 Al
0.500000 0.000000 0.300000 Al
0.500000 0.200000 0.300000 Al
0.500000 0.400000 0.300000 Al
0.700000 0.600000 0.300000 Al
0.700000 0.800000 0.300000 Al
0.700000 0.000000 0.300000 Al
0.700000 0.200000 0.300000 Al
0.700000 0.400000 0.300000 Al
0.933333 0.533333 0.350000 Al
0.933333 0.733333 0.350000 Al
0.933333 0.933333 0.350000 Al
0.933333 0.133333 0.350000 Al
0.933333 0.333333 0.350000 Al
0.133333 0.533333 0.350000 Al
0.133333 0.733333 0.350000 Al
0.133333 0.933333 0.350000 Al
0.133333 0.133333 0.350000 Al
0.133333 0.333333 0.350000 Al
0.333333 0.533333 0.350000 Al
0.333333 0.733333 0.350000 Al
0.333333 0.933333 0.350000 Al
0.333333 0.133333 0.350000 Al
0.333333 0.333333 0.350000 Al
0.533333 0.533333 0.350000 Al
0.533333 0.733333 0.350000 Al
0.533333 0.933333 0.350000 Al
0.533333 0.133333 0.350000 Al
0.533333 0.333333 0.350000 Al
0.733333 0.533333 0.350000 Al
0.733333 0.733333 0.350000 Al
0.733333 0.933333 0.350000 Al
0.733333 0.133333 0.350000 Al
0.733333 0.333333 0.350000 Al
0.033333 0.633333 0.350000 Al
0.033333 0.833333 0.350000 Al
0.033333 0.033333 0.350000 Al
0.033333 0.233333 0.350000 Al
0.033333 0.433333 0.350000 Al
0.233333 0.633333 0.350000 Al
0.233333 0.833333 0.350000 Al
0.233333 0.033333 0.350000 Al
0.233333 0.233333 0.350000 Al
0.233333 0.433333 0.350000 Al
0.433333 0.633333 0.350000 Al
0.433333 0.833333 0.350000 Al
0.433333 0.033333 0.350000 Al
0.433333 0.233333 0.350000 Al
0.433333 0.433333 0.350000 Al
0.633333 0.633333 0.350000 Al
0.633333 0.833333 0.350000 Al
0.633333 0.033333 0.350000 Al
0.633333 0.233333 0.350000 Al
0.633333 0.433333 0.350000 Al
0.833333 0.633333 0.350000 Al
0.833333 0.833333 0.350000 Al
0.833333 0.033333 0.350000 Al
0.833333 0.233333 0.350000 Al
0.833333 0.433333 0.350000 Al
0.933333 0.633333 0.350000 Al
0.933333 0.833333 0.350000 Al
0.933333 0.033333 0.350000 Al
0.933333 0.233333 0.350000 Al
0.933333 0.433333 0.350000 Al
0.133333 0.633333 0.350000 Al
0.133333 0.833333 0.350000 Al
0.133333 0.033333 0.350000 Al
0.133333 0.233333 0.350000 Al
0.133333 0.433333 0.350000 Al
0.333333 0.633333 0.350000 Al
0.333333 0.833333 0.350000 Al
0.333333 0.033333 0.350000 Al
0.333333 0.233333 0.350000 Al
0.333333 0.433333 0.350000 Al
0.533333 0.633333 0.350000 Al
0.533333 0.833333 0.350000 Al
0.533333 0.033333 0.350000 Al
0.533333 0.233333 0.350000 Al
0.533333 0.433333 0.350000 Al
0.733333 0.633333 0.350000 Al
0.733333 0.833333 0.350000 Al
0.733333 0.033333 0.350000 Al
0.733333 0.233333 0.350000 Al
0.733333 0.433333 0.350000 Al
0.033333 0.533333 0.350000 Al
0.033333 0.733333 0.350000 Al
0.033333 0.933333 0.350000 Al
0.033333 0.133333 0.350000 Al
0.033333 0.333333 0.350000 Al
0.233333 0.533333 0.350000 Al
0.233333 0.733333 0.350000 Al
0.233333 0.933333 0.350000 Al
0.233333 0.133333 0.350000 Al
0.233333 0.333333 0.350000 Al
0.433333 0.533333 0.350000 Al
0.433333 0.733333 0.350000 Al
0.433333 0.933333 0.350000 Al
0.433333 0.133333 0.350000 Al
0.433333 0.333333 0.350000 Al
0.633333 0.533333 0.350000 Al
0.633333 0.733333 0.350000 Al
0.633333 0.933333 0.350000 Al
0.633333 0.133333 0.350000 Al
0.633333 0.333333 0.350000 Al
0.833333 0.533333 0.350000 Al
0.833333 0.733333 0.350000 Al
0.833333 0.933333 0.350000 Al
0.833333 0.133333 0.350000 Al
0.833333 0.333333 0.350000 Al
0.066667 0.466667 0.400000 Al
0.066667 0.666667 0.400000 Al
0.066667 0.866667 0.400000 Al
0.066667 0.066667 0.400000 Al
0.066667 0.266667 0.400000 Al
0.266667 0.466667 0.400000 Al
0.266667 0.666667 0.400000 Al
0.266667 0.866667 0.400000 Al
0.266667 0.066667 0.400000 Al
0.266667 0.266667 0.400000 Al
0.466667 0.466667 0.400000 Al
0.466667 0.666667 0.400000 Al
0.466667 0.866667 0.400000 Al
0.466667 0.066667 0.400000 Al
0.466667 0.266667 0.400000 Al
0.666667 0.466667 0.400000 Al
0.666667 0.666667 0.400000 Al
0.666667 0.866667 0.400000 Al
0.666667 0.066667 0.400000 Al
0.666667 0.266667 0.400000 Al
0.866667 0.466667 0.400000 Al
0.866667 0.666667 0.400000 Al
0.866667 0.866667 0.400000 Al
0.866667 0.066667 0.400000 Al
0.866667 0.266667 0.400000 Al
0.166667 0.566667 0.400000 Al
0.166667 0.766667 0.400000 Al
0.166667 0.966667 0.400000 Al
0.166667 0.166667 0.400000 Al
0.166667 0.366667 0.400000 Al
0.366667 0.566667 0.400000 Al
0.366667 0.766667 0.400000 Al
0.366667 0.966667 0.400000 Al
0.366667 0.166667 0.400000 Al
0.366667 0.366667 0.400000 Al
0.566667 0.566667 0.400000 Al
0.566667 0.766667 0.400000 Al
0.566667 0.966667 0.400000 Al
0.566667 0.166667 0.400000 Al
0.566667 0.366667 0.400000 Al
0.766667 0.566667 0.400000 Al
0.766667 0.766667 0.400000 Al
0.766667 0.966667 0.400000 Al
0.766667 0.166667 0.400000 Al
0.766667 0.366667 0.400000 Al
0.966667 0.566667 0.400000 Al
0.966667 0.766667 0.400000 Al
0.966667 0.966667 0.400000 Al
0.966667 0.166667 0.400000 Al
0.966667 0.366667 0.400000 Al
0.066667 0.566667 0.400000 Al
0.066667 0.766667 0.400000 Al
0.066667 0.966667 0.400000 Al
0.066667 0.166667 0.400000 Al
0.066667 0.366667 0.400000 Al
0.266667 0.566667 0.400000 Al
0.266667 0.766667 0.400000 Al
0.266667 0.966667 0.400000 Al
0.266667 0.166667 0.400000 Al
0.266667 0.366667 0.400000 Al
0.466667 0.566667 0.400000 Al
0.466667 0.766667 0.400000 Al
0.466667 0.966667 0.400000 Al
0.466667 0.166667 0.400000 Al
0.466667 0.366667 0.400000 Al
0.666667 0.566667 0.400000 Al
0.666667 0.766667 0.400000 Al
0.666667 0.966667 0.400000 Al
0.666667 0.166667 0.400000 Al
0.666667 0.366667 0.400000 Al
0.866667 0.566667 0.400000 Al
0.866667 0.766667 0.400000 Al
0.866667 0.966667 0.400000 Al
0.866667 0.166667 0.400000 Al
0.866667 0.366667 0.400000 Al
0.166667 0.466667 0.400000 Al
0.166667 0.666667 0.400000 Al
0.166667 0.866667 0.400000 Al
0.166667 0.066667 0.400000 Al
0.166667 0.266667 0.400000 Al
0.366667 0.466667 0.400000 Al
0.366667 0.666667 0.400000 Al
0.366667 0.866667 0.400000 Al
0.366667 0.066667 0.400000 Al
0.366667 0.266667 0.400000 Al
0.566667 0.466667 0.400000 Al
0.566667 0.666667 0.400000 Al
0.566667 0.866667 0.400000 Al
0.566667 0.066667 0.400000 Al
0.566667 0.266667 0.400000 Al
0.766667 0.466667 0.400000 Al
0.766667 0.666667 0.400000 Al
0.766667 0.866667 0.400000 Al
0.766667 0.066667 0.400000 Al
0.766667 0.266667 0.400000 Al
0.966667 0.466667 0.400000 Al
0.966667 0.666667 0.400000 Al
0.966667 0.866667 0.400000 Al
0.966667 0.066667 0.400000 Al
0.966667 0.266667 0.400000 Al
0.200000 0.400000 0.450000 Al
0.200000 0.600000 0.450000 Al
0.200000 0.800000 0.450000 Al
0.200000 0.000000 0.450000 Al
0.200000 0.200000 0.450000 Al
0.400000 0.400000 0.450000 Al
0.400000 0.600000 0.450000 Al
0.400000 0.800000 0.450000 Al
0.400000 0.000000 0.450000 Al
0.400000 0.200000 0.450000 Al
0.600000 0.400000 0.450000 Al
0.600000 0.600000 0.450000 Al
0.600000 0.800000 0.450000 Al
0.600000 0.000000 0.450000 Al
0.600000 0.200000 0.450000 Al
0.800000 0.400000 0.450000 Al
0.800000 0.600000 0.450000 Al
0.800000 0.800000 0.450000 Al
0.800000 0.000000 0.450000 Al
0.800000 0.200000 0.450000 Al
0.000000 0.400000 0.450000 Al
1.000000 0.600000 0.450000 Al
0.000000 0.800000 0.450000 Al
0.000000 0.000000 0.450000 Al
0.000000 0.200000 0.450000 Al
0.300000 0.500000 0.450000 Al
0.300000 0.700000 0.450000 Al
0.300000 0.900000 0.450000 Al
0.300000 0.100000 0.450000 Al
0.300000 0.300000 0.450000 Al
0.500000 0.500000 0.450000 Al
0.500000 0.700000 0.450000 Al
0.500000 0.900000 0.450000 Al
0.500000 0.100000 0.450000 Al
0.500000 0.300000 0.450000 Al
0.700000 0.500000 0.450000 Al
0.700000 0.700000 0.450000 Al
0.700000 0.900000 0.450000 Al
0.700000 0.100000 0.450000 Al
0.700000 0.300000 0.450000 Al
0.900000 0.500000 0.450000 Al
0.900000 0.700000 0.450000 Al
0.900000 0.900000 0.450000 Al
0.900000 0.100000 0.450000 Al
0.900000 0.300000 0.450000 Al
0.100000 0.500000 0.450000 Al
0.100000 0.700000 0.450000 Al
0.100000 0.900000 0.450000 Al
0.100000 0.100000 0.450000 Al
0.100000 0.300000 0.450000 Al
0.200000 0.500000 0.450000 Al
0.200000 0.700000 0.450000 Al
0.200000 0.900000 0.450000 Al
0.200000 0.100000 0.450000 Al
0.200000 0.300000 0.450000 Al
0.400000 0.500000 0.450000 Al
0.400000 0.700000 0.450000 Al
0.400000 0.900000 0.450000 Al
0.400000 0.100000 0.450000 Al
0.400000 0.300000 0.450000 Al
0.600000 0.500000 0.450000 Al
0.600000 0.700000 0.450000 Al
0.600000 0.900000 0.450000 Al
0.600000 0.100000 0.450000 Al
0.600000 0.300000 0.450000 Al
0.800000 0.500000 0.450000 Al
0.800000 0.700000 0.450000 Al
0.800000 0.900000 0.450000 Al
0.800000 0.100000 0.450000 Al
0.800000 0.300000 0.450000 Al
1.000000 0.500000 0.450000 Al
0.000000 0.700000 0.450000 Al
1.000000 0.900000 0.450000 Al
0.000000 0.100000 0.450000 Al
1.000000 0.300000 0.450000 Al
0.300000 0.400000 0.450000 Al
0.300000 0.600000 0.450000 Al
0.300000 0.800000 0.450000 Al
0.300000 0.000000 0.450000 Al
0.300000 0.200000 0.450000 Al
0.500000 0.400000 0.450000 Al
0.500000 0.600000 0.450000 Al
0.500000 0.800000 0.450000 Al
0.500000 0.000000 0.450000 Al
0.500000 0.200000 0.450000 Al
0.700000 0.400000 0.450000 Al
0.700000 0.600000 0.450000 Al
0.700000 0.800000 0.450000 Al
0.700000 0.000000 0.450000 Al
0.700000 0.200000 0.450000 Al
0.900000 0.400000 0.450000 Al
0.900000 0.600000 0.450000 Al
0.900000 0.800000 0.450000 Al
0.900000 0.000000 0.450000 Al
0.900000 0.200000 0.450000 Al
0.100000 0.400000 0.450000 Al
0.100000 0.600000 0.450000 Al
0.100000 0.800000 0.450000 Al
0.100000 0.000000 0.450000 Al
0.100000 0.200000 0.450000 Al
0.333333 0.333333 0.500000 Al
0.333333 0.533333 0.500000 Al
0.333333 0.733333 0.500000 Al
0.333333 0.933333 0.500000 Al
0.333333 0.133333 0.500000 Al
0.533333 0.333333 0.500000 Al
0.533333 0.533333 0.500000 Al
0.533333 0.733333 0.500000 Al
0.533333 0.933333 0.500000 Al
0.533333 0.133333 0.500000 Al
0.733333 0.333333 0.500000 Al
0.733333 0.533333 0.500000 Al
0.733333 0.733333 0.500000 Al
0.733333 0.933333 0.500000 Al
0.733333 0.133333 0.500000 Al
0.933333 0.333333 0.500000 Al
0.933333 0.533333 0.500000 Al
0.933333 0.733333 0.500000 Al
0.933333 0.933333 0.500000 Al
0.933333 0.133333 0.500000 Al
0.133333 0.333333 0.500000 Al
0.133333 0.533333 0.500000 Al
0.133333 0.733333 0.500000 Al
0.133333 0.933333 0.500000 Al
0.133333 0.133333 0.500000 Al
0.433333 0.433333 0.500000 Al
0.433333 0.633333 0.500000 Al
0.433333 0.833333 0.500000 Al
0.433333 0.033333 0.500000 Al
0.433333 0.233333 0.500000 Al
0.633333 0.433333 0.500000 Al
0.633333 0.633333 0.500000 Al
0.633333 0.833333 0.500000 Al
0.633333 0.033333 0.500000 Al
0.633333 0.233333 0.500000 Al
0.833333 0.433333 0.500000 Al
0.833333 0.633333 0.500000 Al
0.833333 0.833333 0.500000 Al
0.833333 0.033333 0.500000 Al
0.833333 0.233333 0.500000 Al
0.033333 0.433333 0.500000 Al
0.033333 0.633333 0.500000 Al
0.033333 0.833333 0.500000 Al
0.033333 0.033333 0.500000 Al
0.033333 0.233333 0.500000 Al
0.233333 0.433333 0.500000 Al
0.233333 0.633333 0.500000 Al
0.233333 0.833333 0.500000 Al
0.233333 0.033333 0.500000 Al
0.233333 0.233333 0.500000 Al
0.333333 0.433333 0.500000 Al
0.333333 0.633333 0.500000 Al
0.333333 0.833333 0.500000 Al
0.333333 0.033333 0.500000 Al
0.333333 0.233333 0.500000 Al
0.533333 0.433333 0.500000 Al
0.533333 0.633333 0.500000 Al
0.533333 0.833333 0.500000 Al
0.533333 0.033333 0.500000 Al
0.533333 0.233333 0.500000 Al
0.733333 0.433333 0.500000 Al
0.733333 0.633333 0.500000 Al
0.733333 0.833333 0.500000 Al
0.733333 0.033333 0.500000 Al
0.733333 0.233333 0.500000 Al
0.933333 0.433333 0.500000 Al
0.933333 0.633333 0.500000 Al
0.933333 0.833333 0.500000 Al
0.933333 0.033333 0.500000 Al
0.933333 0.233333 0.500000 Al
0.133333 0.433333 0.500000 Al
0.133333 0.633333 0.500000 Al
0.133333 0.833333 0.500000 Al
0.133333 0.033333 0.500000 Al
0.133333 0.233333 0.500000 Al
0.433333 0.333333 0.500000 Al
0.433333 0.533333 0.500000 Al
0.433333 0.733333 0.500000 Al
0.433333 0.933333 0.500000 Al
0.433333 0.133333 0.500000 Al
0.633333 0.333333 0.500000 Al
0.633333 0.533333 0.500000 Al
0.633333 0.733333 0.500000 Al
0.633333 0.933333 0.500000 Al
0.633333 0.133333 0.500000 Al
0.833333 0.333333 0.500000 Al
0.833333 0.533333 0.500000 Al
0.833333 0.733333 0.500000 Al
0.833333 0.933333 0.500000 Al
0.833333 0.133333 0.500000 Al
0.033333 0.333333 0.500000 Al
0.033333 0.533333 0.500000 Al
0.033333 0.733333 0.500000 Al
0.033333 0.933333 0.500000 Al
0.033333 0.133333 0.500000 Al
0.233333 0.333333 0.500000 Al
0.233333 0.533333 0.500000 Al
0.233333 0.733333 0.500000 Al
0.233333 0.933333 0.500000 Al
0.233333 0.133333 0.500000 Al
0.466667 0.266667 0.550000 Al
0.466667 0.466667 0.550000 Al
0.466667 0.666667 0.550000 Al
0.466667 0.866667 0.550000 Al
0.466667 0.066667 0.550000 Al
0.666667 0.266667 0.550000 Al
0.666667 0.466667 0.550000 Al
0.666667 0.666667 0.550000 Al
0.666667 0.866667 0.550000 Al
0.666667 0.066667 0.550000 Al
0.866667 0.266667 0.550000 Al
0.866667 0.466667 0.550000 Al
0.866667 0.666667 0.550000 Al
0.866667 0.866667 0.550000 Al
0.866667 0.066667 0.550000 Al
0.066667 0.266667 0.550000 Al
0.066667 0.466667 0.550000 Al
0.066667 0.666667 0.550000 Al
0.066667 0.866667 0.550000 Al
0.066667 0.066667 0.550000 Al
0.266667 0.266667 0.550000 Al
0.266667 0.466667 0.550000 Al
0.266667 0.666667 0.550000 Al
0.266667 0.866667 0.550000 Al
0.266667 0.066667 0.550000 Al
0.566667 0.366667 0.550000 Al
0.566667 0.566667 0.550000 Al
0.566667 0.766667 0.550000 Al
0.566667 0.966667 0.550000 Al
0.566667 0.166667 0.550000 Al
0.766667 0.366667 0.550000 Al
0.766667 0.566667 0.550000 Al
0.766667 0.766667 0.550000 Al
0.766667 0.966667 0.550000 Al
0.766667 0.166667 0.550000 Al
0.966667 0.366667 0.550000 Al
0.966667 0.566667 0.550000 Al
0.966667 0.766667 0.550000 Al
0.966667 0.966667 0.550000 Al
0.966667 0.166667 0.550000 Al
0.166667 0.366667 0.550000 Al
0.166667 0.566667 0.550000 Al
0.166667 0.766667 0.550000 Al
0.166667 0.966667 0.550000 Al
0.166667 0.166667 0.550000 Al
0.366667 0.366667 0.550000 Al
0.366667 0.566667 0.550000 Al
0.366667 0.766667 0.550000 Al
0.366667 0.966667 0.550000 Al
0.366667 0.166667 0.550000 Al
0.466667 0.366667 0.550000 Al
0.466667 0.566667 0.550000 Al
0.466667 0.766667 0.550000 Al
0.466667 0.966667 0.550000 Al
0.466667 0.166667 0.550000 Al
0.666667 0.366667 0.550000 Al
0.666667 0.566667 0.550000 Al
0.666667 0.766667 0.550000 Al
0.666667 0.966667 0.550000 Al
0.666667 0.166667 0.550000 Al
0.866667 0.366667 0.550000 Al
0.866667 0.566667 0.550000 Al
0.866667 0.766667 0.550000 Al
0.866667 0.966667 0.550000 Al
0.866667 0.166667 0.550000 Al
0.066667 0.366667 0.550000 Al
0.066667 0.566667 0.550000 Al
0.066667 0.766667 0.550000 Al
0.066667 0.966667 0.550000 Al
0.066667 0.166667 0.550000 Al
0.266667 0.366667 0.550000 Al
0.266667 0.566667 0.550000 Al
0.266667 0.766667 0.550000 Al
0.266667 0.966667 0.550000 Al
0.266667 0.166667 0.550000 Al
0.566667 0.266667 0.550000 Al
0.566667 0.466667 0.550000 Al
0.566667 0.666667 0.550000 Al
0.566667 0.866667 0.550000 Al
0.566667 0.066667 0.550000 Al
0.766667 0.266667 0.550000 Al
0.766667 0.466667 0.550000 Al
0.766667 0.666667 0.550000 Al
0.766667 0.866667 0.550000 Al
0.766667 0.066667 0.550000 Al
0.966667 0.266667 0.550000 Al
0.966667 0.466667 0.550000 Al
0.966667 0.666667 0.550000 Al
0.966667 0.866667 0.550000 Al
0.966667 0.066667 0.550000 Al
0.166667 0.266667 0.550000 Al
0.166667 0.466667 0.550000 Al
0.166667 0.666667 0.550000 Al
0.166667 0.866667 0.550000 Al
0.166667 0.066667 0.550000 Al
0.366667 0.266667 0.550000 Al
0.366667 0.466667 0.550000 Al
0.366667 0.666667 0.550000 Al
0.366667 0.866667 0.550000 Al
0.366667 0.066667 0.550000 Al
0.600000 0.200000 0.600000 Al
0.600000 0.400000 0.600000 Al
0.600000 0.600000 0.600000 Al
0.600000 0.800000 0.600000 Al
0.600000 0.000000 0.600000 Al
0.800000 0.200000 0.600000 Al
0.800000 0.400000 0.600000 Al
0.800000 0.600000 0.600000 Al
0.800000 0.800000 0.600000 Al
0.800000 0.000000 0.600000 Al
1.000000 0.200000 0.600000 Al
1.000000 0.400000 0.600000 Al
0.000000 0.600000 0.600000 Al
1.000000 0.800000 0.600000 Al
0.000000 0.000000 0.600000 Al
0.200000 0.200000 0.600000 Al
0.200000 0.400000 0.600000 Al
0.200000 0.600000 0.600000 Al
0.200000 0.800000 0.600000 Al
0.200000 0.000000 0.600000 Al
0.400000 0.200000 0.600000 Al
0.400000 0.400000 0.600000 Al
0.400000 0.600000 0.600000 Al
0.400000 0.800000 0.600000 Al
0.400000 0.000000 0.600000 Al
0.700000 0.300000 0.600000 Al
0.700000 0.500000 0.600000 Al
0.700000 0.700000 0.600000 Al
0.700000 0.900000 0.600000 Al
0.700000 0.100000 0.600000 Al
0.900000 0.300000 0.600000 Al
0.900000 0.500000 0.600000 Al
0.900000 0.700000 0.600000 Al
0.900000 0.900000 0.600000 Al
0.900000 0.100000 0.600000 Al
0.100000 0.300000 0.600000 Al
0.100000 0.500000 0.600000 Al
0.100000 0.700000 0.600000 Al
0.100000 0.900000 0.600000 Al
0.100000 0.100000 0.600000 Al
0.300000 0.300000 0.600000 Al
0.300000 0.500000 0.600000 Al
0.300000 0.700000 0.600000 Al
0.300000 0.900000 0.600000 Al
0.300000 0.100000 0.600000 Al
0.500000 0.300000 0.600000 Al
0.500000 0.500000 0.600000 Al
0.500000 0.700000 0.600000 Al
0.500000 0.900000 0.600000 Al
0.500000 0.100000 0.600000 Al
0.600000 0.300000 0.600000 Al
0.600000 0.500000 0.600000 Al
0.600000 0.700000 0.600000 Al
0.600000 0.900000 0.600000 Al
0.600000 0.100000 0.600000 Al
0.800000 0.300000 0.600000 Al
0.800000 0.500000 0.600000 Al
0.800000 0.700000 0.600000 Al
0.800000 0.900000 0.600000 Al
0.800000 0.100000 0.600000 Al
1.000000 0.300000 0.600000 Al
1.000000 0.500000 0.600000 Al
1.000000 0.700000 0.600000 Al
1.000000 0.900000 0.600000 Al
1.000000 0.100000 0.600000 Al
0.200000 0.300000 0.600000 Al
0.200000 0.500000 0.600000 Al
0.200000 0.700000 0.600000 Al
0.200000 0.900000 0.600000 Al
0.200000 0.100000 0.600000 Al
0.400000 0.300000 0.600000 Al
0.400000 0.500000 0.600000 Al
0.400000 0.700000 0.600000 Al
0.400000 0.900000 0.600000 Al
0.400000 0.100000 0.600000 Al
0.700000 0.200000 0.600000 Al
0.700000 0.400000 0.600000 Al
0.700000 0.600000 0.600000 Al
0.700000 0.800000 0.600000 Al
0.700000 0.000000 0.600000 Al
0.900000 0.200000 0.600000 Al
0.900000 0.400000 0.600000 Al
0.900000 0.600000 0.600000 Al
0.900000 0.800000 0.600000 Al
0.900000 0.000000 0.600000 Al
0.100000 0.200000 0.600000 Al
0.100000 0.400000 0.600000 Al
0.100000 0.600000 0.600000 Al
0.100000 0.800000 0.600000 Al
0.100000 0.000000 0.600000 Al
0.300000 0.200000 0.600000 Al
0.300000 0.400000 0.600000 Al
0.300000 0.600000 0.600000 Al
0.300000 0.800000 0.600000 Al
0.300000 0.000000 0.600000 Al
0.500000 0.200000 0.600000 Al
0.500000 0.400000 0.600000 Al
0.500000 0.600000 0.600000 Al
0.500000 0.800000 0.600000 Al
0.500000 0.000000 0.600000 Al
0.733333 0.133333 0.650000 Al
0.733333 0.333333 0.650000 Al
0.733333 0.533333 0.650000 Al
0.733333 0.733333 0.650000 Al
0.733333 0.933333 0.650000 Al
0.933333 0.133333 0.650000 Al
0.933333 0.333333 0.650000 Al
0.933333 0.533333 0.650000 Al
0.933333 0.733333 0.650000 Al
0.933333 0.933333 0.650000 Al
0.133333 0.133333 0.650000 Al
0.133333 0.333333 0.650000 Al
0.133333 0.533333 0.650000 Al
0.133333 0.733333 0.650000 Al
0.133333 0.933333 0.650000 Al
0.333333 0.133333 0.650000 Al
0.333333 0.333333 0.650000 Al
0.333333 0.533333 0.650000 Al
0.333333 0.733333 0.650000 Al
0.333333 0.933333 0.650000 Al
0.533333 0.133333 0.650000 Al
0.533333 0.333333 0.650000 Al
0.533333 0.533333 0.650000 Al
0.533333 0.733333 0.650000 Al
0.533333 0.933333 0.650000 Al
0.833333 0.233333 0.650000 Al
0.833333 0.433333 0.650000 Al
0.833333 0.633333 0.650000 Al
0.833333 0.833333 0.650000 Al
0.833333 0.033333 0.650000 Al
0.033333 0.233333 0.650000 Al
0.033333 0.433333 0.650000 Al
0.033333 0.633333 0.650000 Al
0.033333 0.833333 0.650000 Al
0.033333 0.033333 0.650000 Al
0.233333 0.233333 0.650000 Al
0.233333 0.433333 0.650000 Al
0.233333 0.633333 0.650000 Al
0.233333 0.833333 0.650000 Al
0.233333 0.033333 0.650000 Al
0.433333 0.233333 0.650000 Al
0.433333 0.433333 0.650000 Al
0.433333 0.633333 0.650000 Al
0.433333 0.833333 0.650000 Al
0.433333 0.033333 0.650000 Al
0.633333 0.233333 0.650000 Al
0.633333 0.433333 0.650000 Al
0.633333 0.633333 0.650000 Al
0.633333 0.833333 0.650000 Al
0.633333 0.033333 0.650000 Al
0.733333 0.233333 0.650000 Al
0.733333 0.433333 0.650000 Al
0.733333 0.633333 0.650000 Al
0.733333 0.833333 0.650000 Al
0.733333 0.033333 0.650000 Al
0.933333 0.233333 0.650000 Al
0.933333 0.433333 0.650000 Al
0.933333 0.633333 0.650000 Al
0.933333 0.833333 0.650000 Al
0.933333 0.033333 0.650000 Al
0.133333 0.233333 0.650000 Al
0.133333 0.433333 0.650000 Al
0.133333 0.633333 0.650000 Al
0.133333 0.833333 0.650000 Al
0.133333 0.033333 0.650000 Al
0.333333 0.233333 0.650000 Al
0.333333 0.433333 0.650000 Al
0.333333 0.633333 0.650000 Al
0.333333 0.833333 0.650000 Al
0.333333 0.033333 0.650000 Al
0.533333 0.233333 0.650000 Al
0.533333 0.433333 0.650000 Al
0.533333 0.633333 0.650000 Al
0.533333 0.833333 0.650000 Al
0.533333 0.033333 0.650000 Al
0.833333 0.133333 0.650000 Al
0.833333 0.333333 0.650000 Al
0.833333 0.533333 0.650000 Al
0.833333 0.733333 0.650000 Al
0.833333 0.933333 0.650000 Al
0.033333 0.133333 0.650000 Al
0.033333 0.333333 0.650000 Al
0.033333 0.533333 0.650000 Al
0.033333 0.733333 0.650000 Al
0.033333 0.933333 0.650000 Al
0.233333 0.133333 0.650000 Al
0.233333 0.333333 0.650000 Al
0.233333 0.533333 0.650000 Al
0.233333 0.733333 0.650000 Al
0.233333 0.933333 0.650000 Al
0.433333 0.133333 0.650000 Al
0.433333 0.333333 0.650000 Al
0.433333 0.533333 0.650000 Al
0.433333 0.733333 0.650000 Al
0.433333 0.933333 0.650000 Al
0.633333 0.133333 0.650000 Al
0.633333 0.333333 0.650000 Al
0.633333 0.533333 0.650000 Al
0.633333 0.733333 0.650000 Al
0.633333 0.933333 0.650000 Al
0.866667 0.066667 0.700000 Al
0.866667 0.266667 0.700000 Al
0.866667 0.466667 0.700000 Al
0.866667 0.666667 0.700000 Al
0.866667 0.866667 0.700000 Al
0.066667 0.066667 0.700000 Al
0.066667 0.266667 0.700000 Al
0.066667 0.466667 0.700000 Al
0.066667 0.666667 0.700000 Al
0.066667 0.866667 0.700000 Al
0.266667 0.066667 0.700000 Al
0.266667 0.266667 0.700000 Al
0.266667 0.466667 0.700000 Al
0.266667 0.666667 0.700000 Al
0.266667 0.866667 0.700000 Al
0.466667 0.066667 0.700000 Al
0.466667 0.266667 0.700000 Al
0.466667 0.466667 0.700000 Al
0.466667 0.666667 0.700000 Al
0.466667 0.866667 0.700000 Al
0.666667 0.066667 0.700000 Al
0.666667 0.266667 0.700000 Al
0.666667 0.466667 0.700000 Al
0.666667 0.666667 0.700000 Al
0.666667 0.866667 0.700000 Al
0.966667 0.166667 0.700000 Al
0.966667 0.366667 0.700000 Al
0.966667 0.566667 0.700000 Al
0.966667 0.766667 0.700000 Al
0.966667 0.966667 0.700000 Al
0.166667 0.166667 0.700000 Al
0.166667 0.366667 0.700000 Al
0.166667 0.566667 0.700000 Al
0.166667 0.766667 0.700000 Al
0.166667 0.966667 0.700000 Al
0.366667 0.166667 0.700000 Al
0.366667 0.366667 0.700000 Al
0.366667 0.566667 0.700000 Al
0.366667 0.766667 0.700000 Al
0.366667 0.966667 0.700000 Al
0.566667 0.166667 0.700000 Al
0.566667 0.366667 0.700000 Al
0.566667 0.566667 0.700000 Al
0.566667 0.766667 0.700000 Al
0.566667 0.966667 0.700000 Al
0.766667 0.166667 0.700000 Al
0.766667 0.366667 0.700000 Al
0.766667 0.566667 0.700000 Al
0.766667 0.766667 0.700000 Al
0.766667 0.966667 0.700000 Al
0.866667 0.166667 0.700000 Al
0.866667 0.366667 0.700000 Al
0.866667 0.566667 0.700000 Al
0.866667 0.766667 0.700000 Al
0.866667 0.966667 0.700000 Al
0.066667 0.166667 0.700000 Al
0.066667 0.366667 0.700000 Al
0.066667 0.566667 0.700000 Al
0.066667 0.766667 0.700000 Al
0.066667 0.966667 0.700000 Al
0.266667 0.166667 0.700000 Al
0.266667 0.366667 0.700000 Al
0.266667 0.566667 0.700000 Al
0.266667 0.766667 0.700000 Al
0.266667 0.966667 0.700000 Al
0.466667 0.166667 0.700000 Al
0.466667 0.366667 0.700000 Al
0.466667 0.566667 0.700000 Al
0.466667 0.766667 0.700000 Al
0.466667 0.966667 0.700000 Al
0.666667 0.166667 0.700000 Al
0.666667 0.366667 0.700000 Al
0.666667 0.566667 0.700000 Al
0.666667 0.766667 0.700000 Al
0.666667 0.966667 0.700000 Al
0.966667 0.066667 0.700000 Al
0.966667 0.266667 0.700000 Al
0.966667 0.466667 0.700000 Al
0.966667 0.666667 0.700000 Al
0.966667 0.866667 0.700000 Al
0.166667 0.066667 0.700000 Al
0.166667 0.266667 0.700000 Al
0.166667 0.466667 0.700000 Al
0.166667 0.666667 0.700000 Al
0.166667 0.866667 0.700000 Al
0.366667 0.066667 0.700000 Al
0.366667 0.266667 0.700000 Al
0.366667 0.466667 0.700000 Al
0.366667 0.666667 0.700000 Al
0.366667 0.866667 0.700000 Al
0.566667 0.066667 0.700000 Al
0.566667 0.266667 0.700000 Al
0.566667 0.466667 0.700000 Al
0.566667 0.666667 0.700000 Al
0.566667 0.866667 0.700000 Al
0.766667 0.066667 0.700000 Al
0.766667 0.266667 0.700000 Al
0.766667 0.466667 0.700000 Al
0.766667 0.666667 0.700000 Al
0.766667 0.866667 0.700000 Al
