Surf-2_1_1@vac25@size20
1.0
-12.150000 24.300000 0.000000
-12.150000 0.000000 24.300000
40.500000 20.250000 20.250000
Al
1008
direct
0.885417 0.885417 0.337500 Al
0.885417 0.218750 0.337500 Al
0.885417 0.552083 0.337500 Al
0.218750 0.885417 0.337500 Al
0.218750 0.218750 0.337500 Al
0.218750 0.552083 0.337500 Al
0.552083 0.885417 0.337500 Al
0.552083 0.218750 0.337500 Al
0.552083 0.552083 0.337500 Al
0.774306 0.774306 0.270833 Al
0.774306 0.107639 0.270833 Al
0.774306 0.440972 0.270833 Al
0.107639 0.774306 0.270833 Al
0.107639 0.107639 0.270833 Al
0.107639 0.440972 0.270833 Al
0.440972 0.774306 0.270833 Al
0.440972 0.107639 0.270833 Al
0.440972 0.440972 0.270833 Al
0.746528 0.913194 0.304167 Al
0.746528 0.246528 0.304167 Al
0.746528 0.579861 0.304167 Al
0.079861 0.913194 0.304167 Al
0.079861 0.246528 0.304167 Al
0.079861 0.579861 0.304167 Al
0.413194 0.913194 0.304167 Al
0.413194 0.246528 0.304167 Al
0.413194 0.579861 0.304167 Al
0.913194 0.746528 0.304167 Al
0.913194 0.079861 0.304167 Al
0.913194 0.413194 0.304167 Al
0.246528 0.746528 0.304167 Al
0.246528 0.079861 0.304167 Al
0.246528 0.413194 0.304167 Al
0.579861 0.746528 0.304167 Al
0.579861 0.079861 0.304167 Al
0.579861 0.413194 0.304167 Al
0.996528 0.996528 0.304167 Al
0.996528 0.329861 0.304167 Al
0.996528 0.663194 0.304167 Al
0.329861 0.996528 0.304167 Al
0.329861 0.329861 0.304167 Al
0.329861 0.663194 0.304167 Al
0.663194 0.996528 0.304167 Al
0.663194 0.329861 0.304167 Al
0.663194 0.663194 0.304167 Al
0.829861 0.829861 0.304167 Al
0.829861 0.163194 0.304167 Al
0.829861 0.496528 0.304167 Al
0.163194 0.829861 0.304167 Al
0.163194 0.163194 0.304167 Al
0.163194 0.496528 0.304167 Al
0.496528 0.829861 0.304167 Al
0.496528 0.163194 0.304167 Al
0.496528 0.496528 0.304167 Al
0.857639 0.024306 0.270833 Al
0.857639 0.357639 0.270833 Al
0.857639 0.690972 0.270833 Al
0.190972 0.024306 0.270833 Al
0.190972 0.357639 0.270833 Al
0.190972 0.690972 0.270833 Al
0.524306 0.024306 0.270833 Al
0.524306 0.357639 0.270833 Al
0.524306 0.690972 0.270833 Al
0.024306 0.857639 0.270833 Al
0.024306 0.190972 0.270833 Al
0.024306 0.524306 0.270833 Al
0.357639 0.857639 0.270833 Al
0.357639 0.190972 0.270833 Al
0.357639 0.524306 0.270833 Al
0.690972 0.857639 0.270833 Al
0.690972 0.190972 0.270833 Al
0.690972 0.524306 0.270833 Al
0.899306 0.982639 0.320833 Al
0.899306 0.315972 0.320833 Al
0.899306 0.649306 0.320833 Al
0.232639 0.982639 0.320833 Al
0.232639 0.315972 0.320833 Al
0.232639 0.649306 0.320833 Al
0.565972 0.982639 0.320833 Al
0.565972 0.315972 0.320833 Al
0.565972 0.649306 0.320833 Al
0.732639 0.815972 0.320833 Al
0.732639 0.149306 0.320833 Al
0.732639 0.482639 0.320833 Al
0.065972 0.815972 0.320833 Al
0.065972 0.149306 0.320833 Al
0.065972 0.482639 0.320833 Al
0.399306 0.815972 0.320833 Al
0.399306 0.149306 0.320833 Al
0.399306 0.482639 0.320833 Al
0.760417 0.010417 0.287500 Al
0.760417 0.343750 0.287500 Al
0.760417 0.677083 0.287500 Al
0.093750 0.010417 0.287500 Al
0.093750 0.343750 0.287500 Al
0.093750 0.677083 0.287500 Al
0.427083 0.010417 0.287500 Al
0.427083 0.343750 0.287500 Al
0.427083 0.677083 0.287500 Al
0.927083 0.843750 0.287500 Al
0.927083 0.177083 0.287500 Al
0.927083 0.510417 0.287500 Al
0.260417 0.843750 0.287500 Al
0.260417 0.177083 0.287500 Al
0.260417 0.510417 0.287500 Al
0.593750 0.843750 0.287500 Al
0.593750 0.177083 0.287500 Al
0.593750 0.510417 0.287500 Al
0.982639 0.899306 0.320833 Al
0.982639 0.232639 0.320833 Al
0.982639 0.565972 0.320833 Al
0.315972 0.899306 0.320833 Al
0.315972 0.232639 0.320833 Al
0.315972 0.565972 0.320833 Al
0.649306 0.899306 0.320833 Al
0.649306 0.232639 0.320833 Al
0.649306 0.565972 0.320833 Al
0.815972 0.732639 0.320833 Al
0.815972 0.065972 0.320833 Al
0.815972 0.399306 0.320833 Al
0.149306 0.732639 0.320833 Al
0.149306 0.065972 0.320833 Al
0.149306 0.399306 0.320833 Al
0.482639 0.732639 0.320833 Al
0.482639 0.065972 0.320833 Al
0.482639 0.399306 0.320833 Al
0.843750 0.927083 0.287500 Al
0.843750 0.260417 0.287500 Al
0.843750 0.593750 0.287500 Al
0.177083 0.927083 0.287500 Al
0.177083 0.260417 0.287500 Al
0.177083 0.593750 0.287500 Al
0.510417 0.927083 0.287500 Al
0.510417 0.260417 0.287500 Al
0.510417 0.593750 0.287500 Al
0.010417 0.760417 0.287500 Al
0.010417 0.093750 0.287500 Al
0.010417 0.427083 0.287500 Al
0.343750 0.760417 0.287500 Al
0.343750 0.093750 0.287500 Al
0.343750 0.427083 0.287500 Al
0.677083 0.760417 0.287500 Al
0.677083 0.093750 0.287500 Al
0.677083 0.427083 0.287500 Al
0.829861 0.829861 0.404167 Al
0.829861 0.163194 0.404167 Al
0.829861 0.496528 0.404167 Al
0.163194 0.829861 0.404167 Al
0.163194 0.163194 0.404167 Al
0.163194 0.496528 0.404167 Al
0.496528 0.829861 0.404167 Al
0.496528 0.163194 0.404167 Al
0.496528 0.496528 0.404167 Al
0.718750 0.718750 0.337500 Al
0.718750 0.052083 0.337500 Al
0.718750 0.385417 0.337500 Al
0.052083 0.718750 0.337500 Al
0.052083 0.052083 0.337500 Al
0.052083 0.385417 0.337500 Al
0.385417 0.718750 0.337500 Al
0.385417 0.052083 0.337500 Al
0.385417 0.385417 0.337500 Al
0.690972 0.857639 0.370833 Al
0.690972 0.190972 0.370833 Al
0.690972 0.524306 0.370833 Al
0.024306 0.857639 0.370833 Al
0.024306 0.190972 0.370833 Al
0.024306 0.524306 0.370833 Al
0.357639 0.857639 0.370833 Al
0.357639 0.190972 0.370833 Al
0.357639 0.524306 0.370833 Al
0.857639 0.690972 0.370833 Al
0.857639 0.024306 0.370833 Al
0.857639 0.357639 0.370833 Al
0.190972 0.690972 0.370833 Al
0.190972 0.024306 0.370833 Al
0.190972 0.357639 0.370833 Al
0.524306 0.690972 0.370833 Al
0.524306 0.024306 0.370833 Al
0.524306 0.357639 0.370833 Al
0.940972 0.940972 0.370833 Al
0.940972 0.274306 0.370833 Al
0.940972 0.607639 0.370833 Al
0.274306 0.940972 0.370833 Al
0.274306 0.274306 0.370833 Al
0.274306 0.607639 0.370833 Al
0.607639 0.940972 0.370833 Al
0.607639 0.274306 0.370833 Al
0.607639 0.607639 0.370833 Al
0.774306 0.774306 0.370833 Al
0.774306 0.107639 0.370833 Al
0.774306 0.440972 0.370833 Al
0.107639 0.774306 0.370833 Al
0.107639 0.107639 0.370833 Al
0.107639 0.440972 0.370833 Al
0.440972 0.774306 0.370833 Al
0.440972 0.107639 0.370833 Al
0.440972 0.440972 0.370833 Al
0.802083 0.968750 0.337500 Al
0.802083 0.302083 0.337500 Al
0.802083 0.635417 0.337500 Al
0.135417 0.968750 0.337500 Al
0.135417 0.302083 0.337500 Al
0.135417 0.635417 0.337500 Al
0.468750 0.968750 0.337500 Al
0.468750 0.302083 0.337500 Al
0.468750 0.635417 0.337500 Al
0.968750 0.802083 0.337500 Al
0.968750 0.135417 0.337500 Al
0.968750 0.468750 0.337500 Al
0.302083 0.802083 0.337500 Al
0.302083 0.135417 0.337500 Al
0.302083 0.468750 0.337500 Al
0.635417 0.802083 0.337500 Al
0.635417 0.135417 0.337500 Al
0.635417 0.468750 0.337500 Al
0.843750 0.927083 0.387500 Al
0.843750 0.260417 0.387500 Al
0.843750 0.593750 0.387500 Al
0.177083 0.927083 0.387500 Al
0.177083 0.260417 0.387500 Al
0.177083 0.593750 0.387500 Al
0.510417 0.927083 0.387500 Al
0.510417 0.260417 0.387500 Al
0.510417 0.593750 0.387500 Al
0.677083 0.760417 0.387500 Al
0.677083 0.093750 0.387500 Al
0.677083 0.427083 0.387500 Al
0.010417 0.760417 0.387500 Al
0.010417 0.093750 0.387500 Al
0.010417 0.427083 0.387500 Al
0.343750 0.760417 0.387500 Al
0.343750 0.093750 0.387500 Al
0.343750 0.427083 0.387500 Al
0.704861 0.954861 0.354167 Al
0.704861 0.288194 0.354167 Al
0.704861 0.621528 0.354167 Al
0.038194 0.954861 0.354167 Al
0.038194 0.288194 0.354167 Al
0.038194 0.621528 0.354167 Al
0.371528 0.954861 0.354167 Al
0.371528 0.288194 0.354167 Al
0.371528 0.621528 0.354167 Al
0.871528 0.788194 0.354167 Al
0.871528 0.121528 0.354167 Al
0.871528 0.454861 0.354167 Al
0.204861 0.788194 0.354167 Al
0.204861 0.121528 0.354167 Al
0.204861 0.454861 0.354167 Al
0.538194 0.788194 0.354167 Al
0.538194 0.121528 0.354167 Al
0.538194 0.454861 0.354167 Al
0.927083 0.843750 0.387500 Al
0.927083 0.177083 0.387500 Al
0.927083 0.510417 0.387500 Al
0.260417 0.843750 0.387500 Al
0.260417 0.177083 0.387500 Al
0.260417 0.510417 0.387500 Al
0.593750 0.843750 0.387500 Al
0.593750 0.177083 0.387500 Al
0.593750 0.510417 0.387500 Al
0.760417 0.677083 0.387500 Al
0.760417 0.010417 0.387500 Al
0.760417 0.343750 0.387500 Al
0.093750 0.677083 0.387500 Al
0.093750 0.010417 0.387500 Al
0.093750 0.343750 0.387500 Al
0.427083 0.677083 0.387500 Al
0.427083 0.010417 0.387500 Al
0.427083 0.343750 0.387500 Al
0.788194 0.871528 0.354167 Al
0.788194 0.204861 0.354167 Al
0.788194 0.538194 0.354167 Al
0.121528 0.871528 0.354167 Al
0.121528 0.204861 0.354167 Al
0.121528 0.538194 0.354167 Al
0.454861 0.871528 0.354167 Al
0.454861 0.204861 0.354167 Al
0.454861 0.538194 0.354167 Al
0.954861 0.704861 0.354167 Al
0.954861 0.038194 0.354167 Al
0.954861 0.371528 0.354167 Al
0.288194 0.704861 0.354167 Al
0.288194 0.038194 0.354167 Al
0.288194 0.371528 0.354167 Al
0.621528 0.704861 0.354167 Al
0.621528 0.038194 0.354167 Al
0.621528 0.371528 0.354167 Al
0.774306 0.774306 0.470833 Al
0.774306 0.107639 0.470833 Al
0.774306 0.440972 0.470833 Al
0.107639 0.774306 0.470833 Al
0.107639 0.107639 0.470833 Al
0.107639 0.440972 0.470833 Al
0.440972 0.774306 0.470833 Al
0.440972 0.107639 0.470833 Al
0.440972 0.440972 0.470833 Al
0.663194 0.663194 0.404167 Al
0.663194 0.996528 0.404167 Al
0.663194 0.329861 0.404167 Al
0.996528 0.663194 0.404167 Al
0.996528 0.996528 0.404167 Al
0.996528 0.329861 0.404167 Al
0.329861 0.663194 0.404167 Al
0.329861 0.996528 0.404167 Al
0.329861 0.329861 0.404167 Al
0.635417 0.802083 0.437500 Al
0.635417 0.135417 0.437500 Al
0.635417 0.468750 0.437500 Al
0.968750 0.802083 0.437500 Al
0.968750 0.135417 0.437500 Al
0.968750 0.468750 0.437500 Al
0.302083 0.802083 0.437500 Al
0.302083 0.135417 0.437500 Al
0.302083 0.468750 0.437500 Al
0.802083 0.635417 0.437500 Al
0.802083 0.968750 0.437500 Al
0.802083 0.302083 0.437500 Al
0.135417 0.635417 0.437500 Al
0.135417 0.968750 0.437500 Al
0.135417 0.302083 0.437500 Al
0.468750 0.635417 0.437500 Al
0.468750 0.968750 0.437500 Al
0.468750 0.302083 0.437500 Al
0.885417 0.885417 0.437500 Al
0.885417 0.218750 0.437500 Al
0.885417 0.552083 0.437500 Al
0.218750 0.885417 0.437500 Al
0.218750 0.218750 0.437500 Al
0.218750 0.552083 0.437500 Al
0.552083 0.885417 0.437500 Al
0.552083 0.218750 0.437500 Al
0.552083 0.552083 0.437500 Al
0.718750 0.718750 0.437500 Al
0.718750 0.052083 0.437500 Al
0.718750 0.385417 0.437500 Al
0.052083 0.718750 0.437500 Al
0.052083 0.052083 0.437500 Al
0.052083 0.385417 0.437500 Al
0.385417 0.718750 0.437500 Al
0.385417 0.052083 0.437500 Al
0.385417 0.385417 0.437500 Al
0.746528 0.913194 0.404167 Al
0.746528 0.246528 0.404167 Al
0.746528 0.579861 0.404167 Al
0.079861 0.913194 0.404167 Al
0.079861 0.246528 0.404167 Al
0.079861 0.579861 0.404167 Al
0.413194 0.913194 0.404167 Al
0.413194 0.246528 0.404167 Al
0.413194 0.579861 0.404167 Al
0.913194 0.746528 0.404167 Al
0.913194 0.079861 0.404167 Al
0.913194 0.413194 0.404167 Al
0.246528 0.746528 0.404167 Al
0.246528 0.079861 0.404167 Al
0.246528 0.413194 0.404167 Al
0.579861 0.746528 0.404167 Al
0.579861 0.079861 0.404167 Al
0.579861 0.413194 0.404167 Al
0.788194 0.871528 0.454167 Al
0.788194 0.204861 0.454167 Al
0.788194 0.538194 0.454167 Al
0.121528 0.871528 0.454167 Al
0.121528 0.204861 0.454167 Al
0.121528 0.538194 0.454167 Al
0.454861 0.871528 0.454167 Al
0.454861 0.204861 0.454167 Al
0.454861 0.538194 0.454167 Al
0.621528 0.704861 0.454167 Al
0.621528 0.038194 0.454167 Al
0.621528 0.371528 0.454167 Al
0.954861 0.704861 0.454167 Al
0.954861 0.038194 0.454167 Al
0.954861 0.371528 0.454167 Al
0.288194 0.704861 0.454167 Al
0.288194 0.038194 0.454167 Al
0.288194 0.371528 0.454167 Al
0.649306 0.899306 0.420833 Al
0.649306 0.232639 0.420833 Al
0.649306 0.565972 0.420833 Al
0.982639 0.899306 0.420833 Al
0.982639 0.232639 0.420833 Al
0.982639 0.565972 0.420833 Al
0.315972 0.899306 0.420833 Al
0.315972 0.232639 0.420833 Al
0.315972 0.565972 0.420833 Al
0.815972 0.732639 0.420833 Al
0.815972 0.065972 0.420833 Al
0.815972 0.399306 0.420833 Al
0.149306 0.732639 0.420833 Al
0.149306 0.065972 0.420833 Al
0.149306 0.399306 0.420833 Al
0.482639 0.732639 0.420833 Al
0.482639 0.065972 0.420833 Al
0.482639 0.399306 0.420833 Al
0.871528 0.788194 0.454167 Al
0.871528 0.121528 0.454167 Al
0.871528 0.454861 0.454167 Al
0.204861 0.788194 0.454167 Al
0.204861 0.121528 0.454167 Al
0.204861 0.454861 0.454167 Al
0.538194 0.788194 0.454167 Al
0.538194 0.121528 0.454167 Al
0.538194 0.454861 0.454167 Al
0.704861 0.621528 0.454167 Al
0.704861 0.954861 0.454167 Al
0.704861 0.288194 0.454167 Al
0.038194 0.621528 0.454167 Al
0.038194 0.954861 0.454167 Al
0.038194 0.288194 0.454167 Al
0.371528 0.621528 0.454167 Al
0.371528 0.954861 0.454167 Al
0.371528 0.288194 0.454167 Al
0.732639 0.815972 0.420833 Al
0.732639 0.149306 0.420833 Al
0.732639 0.482639 0.420833 Al
0.065972 0.815972 0.420833 Al
0.065972 0.149306 0.420833 Al
0.065972 0.482639 0.420833 Al
0.399306 0.815972 0.420833 Al
0.399306 0.149306 0.420833 Al
0.399306 0.482639 0.420833 Al
0.899306 0.649306 0.420833 Al
0.899306 0.982639 0.420833 Al
0.899306 0.315972 0.420833 Al
0.232639 0.649306 0.420833 Al
0.232639 0.982639 0.420833 Al
0.232639 0.315972 0.420833 Al
0.565972 0.649306 0.420833 Al
0.565972 0.982639 0.420833 Al
0.565972 0.315972 0.420833 Al
0.718750 0.718750 0.537500 Al
0.718750 0.052083 0.537500 Al
0.718750 0.385417 0.537500 Al
0.052083 0.718750 0.537500 Al
0.052083 0.052083 0.537500 Al
0.052083 0.385417 0.537500 Al
0.385417 0.718750 0.537500 Al
0.385417 0.052083 0.537500 Al
0.385417 0.385417 0.537500 Al
0.607639 0.607639 0.470833 Al
0.607639 0.940972 0.470833 Al
0.607639 0.274306 0.470833 Al
0.940972 0.607639 0.470833 Al
0.940972 0.940972 0.470833 Al
0.940972 0.274306 0.470833 Al
0.274306 0.607639 0.470833 Al
0.274306 0.940972 0.470833 Al
0.274306 0.274306 0.470833 Al
0.579861 0.746528 0.504167 Al
0.579861 0.079861 0.504167 Al
0.579861 0.413194 0.504167 Al
0.913194 0.746528 0.504167 Al
0.913194 0.079861 0.504167 Al
0.913194 0.413194 0.504167 Al
0.246528 0.746528 0.504167 Al
0.246528 0.079861 0.504167 Al
0.246528 0.413194 0.504167 Al
0.746528 0.579861 0.504167 Al
0.746528 0.913194 0.504167 Al
0.746528 0.246528 0.504167 Al
0.079861 0.579861 0.504167 Al
0.079861 0.913194 0.504167 Al
0.079861 0.246528 0.504167 Al
0.413194 0.579861 0.504167 Al
0.413194 0.913194 0.504167 Al
0.413194 0.246528 0.504167 Al
0.829861 0.829861 0.504167 Al
0.829861 0.163194 0.504167 Al
0.829861 0.496528 0.504167 Al
0.163194 0.829861 0.504167 Al
0.163194 0.163194 0.504167 Al
0.163194 0.496528 0.504167 Al
0.496528 0.829861 0.504167 Al
0.496528 0.163194 0.504167 Al
0.496528 0.496528 0.504167 Al
0.663194 0.663194 0.504167 Al
0.663194 0.996528 0.504167 Al
0.663194 0.329861 0.504167 Al
0.996528 0.663194 0.504167 Al
0.996528 0.996528 0.504167 Al
0.996528 0.329861 0.504167 Al
0.329861 0.663194 0.504167 Al
0.329861 0.996528 0.504167 Al
0.329861 0.329861 0.504167 Al
0.690972 0.857639 0.470833 Al
0.690972 0.190972 0.470833 Al
0.690972 0.524306 0.470833 Al
0.024306 0.857639 0.470833 Al
0.024306 0.190972 0.470833 Al
0.024306 0.524306 0.470833 Al
0.357639 0.857639 0.470833 Al
0.357639 0.190972 0.470833 Al
0.357639 0.524306 0.470833 Al
0.857639 0.690972 0.470833 Al
0.857639 0.024306 0.470833 Al
0.857639 0.357639 0.470833 Al
0.190972 0.690972 0.470833 Al
0.190972 0.024306 0.470833 Al
0.190972 0.357639 0.470833 Al
0.524306 0.690972 0.470833 Al
0.524306 0.024306 0.470833 Al
0.524306 0.357639 0.470833 Al
0.732639 0.815972 0.520833 Al
0.732639 0.149306 0.520833 Al
0.732639 0.482639 0.520833 Al
0.065972 0.815972 0.520833 Al
0.065972 0.149306 0.520833 Al
0.065972 0.482639 0.520833 Al
0.399306 0.815972 0.520833 Al
0.399306 0.149306 0.520833 Al
0.399306 0.482639 0.520833 Al
0.565972 0.649306 0.520833 Al
0.565972 0.982639 0.520833 Al
0.565972 0.315972 0.520833 Al
0.899306 0.649306 0.520833 Al
0.899306 0.982639 0.520833 Al
0.899306 0.315972 0.520833 Al
0.232639 0.649306 0.520833 Al
0.232639 0.982639 0.520833 Al
0.232639 0.315972 0.520833 Al
0.593750 0.843750 0.487500 Al
0.593750 0.177083 0.487500 Al
0.593750 0.510417 0.487500 Al
0.927083 0.843750 0.487500 Al
0.927083 0.177083 0.487500 Al
0.927083 0.510417 0.487500 Al
0.260417 0.843750 0.487500 Al
0.260417 0.177083 0.487500 Al
0.260417 0.510417 0.487500 Al
0.760417 0.677083 0.487500 Al
0.760417 0.010417 0.487500 Al
0.760417 0.343750 0.487500 Al
0.093750 0.677083 0.487500 Al
0.093750 0.010417 0.487500 Al
0.093750 0.343750 0.487500 Al
0.427083 0.677083 0.487500 Al
0.427083 0.010417 0.487500 Al
0.427083 0.343750 0.487500 Al
0.815972 0.732639 0.520833 Al
0.815972 0.065972 0.520833 Al
0.815972 0.399306 0.520833 Al
0.149306 0.732639 0.520833 Al
0.149306 0.065972 0.520833 Al
0.149306 0.399306 0.520833 Al
0.482639 0.732639 0.520833 Al
0.482639 0.065972 0.520833 Al
0.482639 0.399306 0.520833 Al
0.649306 0.565972 0.520833 Al
0.649306 0.899306 0.520833 Al
0.649306 0.232639 0.520833 Al
0.982639 0.565972 0.520833 Al
0.982639 0.899306 0.520833 Al
0.982639 0.232639 0.520833 Al
0.315972 0.565972 0.520833 Al
0.315972 0.899306 0.520833 Al
0.315972 0.232639 0.520833 Al
0.677083 0.760417 0.487500 Al
0.677083 0.093750 0.487500 Al
0.677083 0.427083 0.487500 Al
0.010417 0.760417 0.487500 Al
0.010417 0.093750 0.487500 Al
0.010417 0.427083 0.487500 Al
0.343750 0.760417 0.487500 Al
0.343750 0.093750 0.487500 Al
0.343750 0.427083 0.487500 Al
0.843750 0.593750 0.487500 Al
0.843750 0.927083 0.487500 Al
0.843750 0.260417 0.487500 Al
0.177083 0.593750 0.487500 Al
0.177083 0.927083 0.487500 Al
0.177083 0.260417 0.487500 Al
0.510417 0.593750 0.487500 Al
0.510417 0.927083 0.487500 Al
0.510417 0.260417 0.487500 Al
0.663194 0.663194 0.604167 Al
0.663194 0.996528 0.604167 Al
0.663194 0.329861 0.604167 Al
0.996528 0.663194 0.604167 Al
0.996528 0.996528 0.604167 Al
0.996528 0.329861 0.604167 Al
0.329861 0.663194 0.604167 Al
0.329861 0.996528 0.604167 Al
0.329861 0.329861 0.604167 Al
0.552083 0.552083 0.537500 Al
0.552083 0.885417 0.537500 Al
0.552083 0.218750 0.537500 Al
0.885417 0.552083 0.537500 Al
0.885417 0.885417 0.537500 Al
0.885417 0.218750 0.537500 Al
0.218750 0.552083 0.537500 Al
0.218750 0.885417 0.537500 Al
0.218750 0.218750 0.537500 Al
0.524306 0.690972 0.570833 Al
0.524306 0.024306 0.570833 Al
0.524306 0.357639 0.570833 Al
0.857639 0.690972 0.570833 Al
0.857639 0.024306 0.570833 Al
0.857639 0.357639 0.570833 Al
0.190972 0.690972 0.570833 Al
0.190972 0.024306 0.570833 Al
0.190972 0.357639 0.570833 Al
0.690972 0.524306 0.570833 Al
0.690972 0.857639 0.570833 Al
0.690972 0.190972 0.570833 Al
0.024306 0.524306 0.570833 Al
0.024306 0.857639 0.570833 Al
0.024306 0.190972 0.570833 Al
0.357639 0.524306 0.570833 Al
0.357639 0.857639 0.570833 Al
0.357639 0.190972 0.570833 Al
0.774306 0.774306 0.570833 Al
0.774306 0.107639 0.570833 Al
0.774306 0.440972 0.570833 Al
0.107639 0.774306 0.570833 Al
0.107639 0.107639 0.570833 Al
0.107639 0.440972 0.570833 Al
0.440972 0.774306 0.570833 Al
0.440972 0.107639 0.570833 Al
0.440972 0.440972 0.570833 Al
0.607639 0.607639 0.570833 Al
0.607639 0.940972 0.570833 Al
0.607639 0.274306 0.570833 Al
0.940972 0.607639 0.570833 Al
0.940972 0.940972 0.570833 Al
0.940972 0.274306 0.570833 Al
0.274306 0.607639 0.570833 Al
0.274306 0.940972 0.570833 Al
0.274306 0.274306 0.570833 Al
0.635417 0.802083 0.537500 Al
0.635417 0.135417 0.537500 Al
0.635417 0.468750 0.537500 Al
0.968750 0.802083 0.537500 Al
0.968750 0.135417 0.537500 Al
0.968750 0.468750 0.537500 Al
0.302083 0.802083 0.537500 Al
0.302083 0.135417 0.537500 Al
0.302083 0.468750 0.537500 Al
0.802083 0.635417 0.537500 Al
0.802083 0.968750 0.537500 Al
0.802083 0.302083 0.537500 Al
0.135417 0.635417 0.537500 Al
0.135417 0.968750 0.537500 Al
0.135417 0.302083 0.537500 Al
0.468750 0.635417 0.537500 Al
0.468750 0.968750 0.537500 Al
0.468750 0.302083 0.537500 Al
0.677083 0.760417 0.587500 Al
0.677083 0.093750 0.587500 Al
0.677083 0.427083 0.587500 Al
0.010417 0.760417 0.587500 Al
0.010417 0.093750 0.587500 Al
0.010417 0.427083 0.587500 Al
0.343750 0.760417 0.587500 Al
0.343750 0.093750 0.587500 Al
0.343750 0.427083 0.587500 Al
0.510417 0.593750 0.587500 Al
0.510417 0.927083 0.587500 Al
0.510417 0.260417 0.587500 Al
0.843750 0.593750 0.587500 Al
0.843750 0.927083 0.587500 Al
0.843750 0.260417 0.587500 Al
0.177083 0.593750 0.587500 Al
0.177083 0.927083 0.587500 Al
0.177083 0.260417 0.587500 Al
0.538194 0.788194 0.554167 Al
0.538194 0.121528 0.554167 Al
0.538194 0.454861 0.554167 Al
0.871528 0.788194 0.554167 Al
0.871528 0.121528 0.554167 Al
0.871528 0.454861 0.554167 Al
0.204861 0.788194 0.554167 Al
0.204861 0.121528 0.554167 Al
0.204861 0.454861 0.554167 Al
0.704861 0.621528 0.554167 Al
0.704861 0.954861 0.554167 Al
0.704861 0.288194 0.554167 Al
0.038194 0.621528 0.554167 Al
0.038194 0.954861 0.554167 Al
0.038194 0.288194 0.554167 Al
0.371528 0.621528 0.554167 Al
0.371528 0.954861 0.554167 Al
0.371528 0.288194 0.554167 Al
0.760417 0.677083 0.587500 Al
0.760417 0.010417 0.587500 Al
0.760417 0.343750 0.587500 Al
0.093750 0.677083 0.587500 Al
0.093750 0.010417 0.587500 Al
0.093750 0.343750 0.587500 Al
0.427083 0.677083 0.587500 Al
0.427083 0.010417 0.587500 Al
0.427083 0.343750 0.587500 Al
0.593750 0.510417 0.587500 Al
0.593750 0.843750 0.587500 Al
0.593750 0.177083 0.587500 Al
0.927083 0.510417 0.587500 Al
0.927083 0.843750 0.587500 Al
0.927083 0.177083 0.587500 Al
0.260417 0.510417 0.587500 Al
0.260417 0.843750 0.587500 Al
0.260417 0.177083 0.587500 Al
0.621528 0.704861 0.554167 Al
0.621528 0.038194 0.554167 Al
0.621528 0.371528 0.554167 Al
0.954861 0.704861 0.554167 Al
0.954861 0.038194 0.554167 Al
0.954861 0.371528 0.554167 Al
0.288194 0.704861 0.554167 Al
0.288194 0.038194 0.554167 Al
0.288194 0.371528 0.554167 Al
0.788194 0.538194 0.554167 Al
0.788194 0.871528 0.554167 Al
0.788194 0.204861 0.554167 Al
0.121528 0.538194 0.554167 Al
0.121528 0.871528 0.554167 Al
0.121528 0.204861 0.554167 Al
0.454861 0.538194 0.554167 Al
0.454861 0.871528 0.554167 Al
0.454861 0.204861 0.554167 Al
0.607639 0.607639 0.670833 Al
0.607639 0.940972 0.670833 Al
0.607639 0.274306 0.670833 Al
0.940972 0.607639 0.670833 Al
0.940972 0.940972 0.670833 Al
0.940972 0.274306 0.670833 Al
0.274306 0.607639 0.670833 Al
0.274306 0.940972 0.670833 Al
0.274306 0.274306 0.670833 Al
0.496528 0.496528 0.604167 Al
0.496528 0.829861 0.604167 Al
0.496528 0.163194 0.604167 Al
0.829861 0.496528 0.604167 Al
0.829861 0.829861 0.604167 Al
0.829861 0.163194 0.604167 Al
0.163194 0.496528 0.604167 Al
0.163194 0.829861 0.604167 Al
0.163194 0.163194 0.604167 Al
0.468750 0.635417 0.637500 Al
0.468750 0.968750 0.637500 Al
0.468750 0.302083 0.637500 Al
0.802083 0.635417 0.637500 Al
0.802083 0.968750 0.637500 Al
0.802083 0.302083 0.637500 Al
0.135417 0.635417 0.637500 Al
0.135417 0.968750 0.637500 Al
0.135417 0.302083 0.637500 Al
0.635417 0.468750 0.637500 Al
0.635417 0.802083 0.637500 Al
0.635417 0.135417 0.637500 Al
0.968750 0.468750 0.637500 Al
0.968750 0.802083 0.637500 Al
0.968750 0.135417 0.637500 Al
0.302083 0.468750 0.637500 Al
0.302083 0.802083 0.637500 Al
0.302083 0.135417 0.637500 Al
0.718750 0.718750 0.637500 Al
0.718750 0.052083 0.637500 Al
0.718750 0.385417 0.637500 Al
0.052083 0.718750 0.637500 Al
0.052083 0.052083 0.637500 Al
0.052083 0.385417 0.637500 Al
0.385417 0.718750 0.637500 Al
0.385417 0.052083 0.637500 Al
0.385417 0.385417 0.637500 Al
0.552083 0.552083 0.637500 Al
0.552083 0.885417 0.637500 Al
0.552083 0.218750 0.637500 Al
0.885417 0.552083 0.637500 Al
0.885417 0.885417 0.637500 Al
0.885417 0.218750 0.637500 Al
0.218750 0.552083 0.637500 Al
0.218750 0.885417 0.637500 Al
0.218750 0.218750 0.637500 Al
0.579861 0.746528 0.604167 Al
0.579861 0.079861 0.604167 Al
0.579861 0.413194 0.604167 Al
0.913194 0.746528 0.604167 Al
0.913194 0.079861 0.604167 Al
0.913194 0.413194 0.604167 Al
0.246528 0.746528 0.604167 Al
0.246528 0.079861 0.604167 Al
0.246528 0.413194 0.604167 Al
0.746528 0.579861 0.604167 Al
0.746528 0.913194 0.604167 Al
0.746528 0.246528 0.604167 Al
0.079861 0.579861 0.604167 Al
0.079861 0.913194 0.604167 Al
0.079861 0.246528 0.604167 Al
0.413194 0.579861 0.604167 Al
0.413194 0.913194 0.604167 Al
0.413194 0.246528 0.604167 Al
0.621528 0.704861 0.654167 Al
0.621528 0.038194 0.654167 Al
0.621528 0.371528 0.654167 Al
0.954861 0.704861 0.654167 Al
0.954861 0.038194 0.654167 Al
0.954861 0.371528 0.654167 Al
0.288194 0.704861 0.654167 Al
0.288194 0.038194 0.654167 Al
0.288194 0.371528 0.654167 Al
0.454861 0.538194 0.654167 Al
0.454861 0.871528 0.654167 Al
0.454861 0.204861 0.654167 Al
0.788194 0.538194 0.654167 Al
0.788194 0.871528 0.654167 Al
0.788194 0.204861 0.654167 Al
0.121528 0.538194 0.654167 Al
0.121528 0.871528 0.654167 Al
0.121528 0.204861 0.654167 Al
0.482639 0.732639 0.620833 Al
0.482639 0.065972 0.620833 Al
0.482639 0.399306 0.620833 Al
0.815972 0.732639 0.620833 Al
0.815972 0.065972 0.620833 Al
0.815972 0.399306 0.620833 Al
0.149306 0.732639 0.620833 Al
0.149306 0.065972 0.620833 Al
0.149306 0.399306 0.620833 Al
0.649306 0.565972 0.620833 Al
0.649306 0.899306 0.620833 Al
0.649306 0.232639 0.620833 Al
0.982639 0.565972 0.620833 Al
0.982639 0.899306 0.620833 Al
0.982639 0.232639 0.620833 Al
0.315972 0.565972 0.620833 Al
0.315972 0.899306 0.620833 Al
0.315972 0.232639 0.620833 Al
0.704861 0.621528 0.654167 Al
0.704861 0.954861 0.654167 Al
0.704861 0.288194 0.654167 Al
0.038194 0.621528 0.654167 Al
0.038194 0.954861 0.654167 Al
0.038194 0.288194 0.654167 Al
0.371528 0.621528 0.654167 Al
0.371528 0.954861 0.654167 Al
0.371528 0.288194 0.654167 Al
0.538194 0.454861 0.654167 Al
0.538194 0.788194 0.654167 Al
0.538194 0.121528 0.654167 Al
0.871528 0.454861 0.654167 Al
0.871528 0.788194 0.654167 Al
0.871528 0.121528 0.654167 Al
0.204861 0.454861 0.654167 Al
0.204861 0.788194 0.654167 Al
0.204861 0.121528 0.654167 Al
0.565972 0.649306 0.620833 Al
0.565972 0.982639 0.620833 Al
0.565972 0.315972 0.620833 Al
0.899306 0.649306 0.620833 Al
0.899306 0.982639 0.620833 Al
0.899306 0.315972 0.620833 Al
0.232639 0.649306 0.620833 Al
0.232639 0.982639 0.620833 Al
0.232639 0.315972 0.620833 Al
0.732639 0.482639 0.620833 Al
0.732639 0.815972 0.620833 Al
0.732639 0.149306 0.620833 Al
0.065972 0.482639 0.620833 Al
0.065972 0.815972 0.620833 Al
0.065972 0.149306 0.620833 Al
0.399306 0.482639 0.620833 Al
0.399306 0.815972 0.620833 Al
0.399306 0.149306 0.620833 Al
0.552083 0.552083 0.737500 Al
0.552083 0.885417 0.737500 Al
0.552083 0.218750 0.737500 Al
0.885417 0.552083 0.737500 Al
0.885417 0.885417 0.737500 Al
0.885417 0.218750 0.737500 Al
0.218750 0.552083 0.737500 Al
0.218750 0.885417 0.737500 Al
0.218750 0.218750 0.737500 Al
0.440972 0.440972 0.670833 Al
0.440972 0.774306 0.670833 Al
0.440972 0.107639 0.670833 Al
0.774306 0.440972 0.670833 Al
0.774306 0.774306 0.670833 Al
0.774306 0.107639 0.670833 Al
0.107639 0.440972 0.670833 Al
0.107639 0.774306 0.670833 Al
0.107639 0.107639 0.670833 Al
0.413194 0.579861 0.704167 Al
0.413194 0.913194 0.704167 Al
0.413194 0.246528 0.704167 Al
0.746528 0.579861 0.704167 Al
0.746528 0.913194 0.704167 Al
0.746528 0.246528 0.704167 Al
0.079861 0.579861 0.704167 Al
0.079861 0.913194 0.704167 Al
0.079861 0.246528 0.704167 Al
0.579861 0.413194 0.704167 Al
0.579861 0.746528 0.704167 Al
0.579861 0.079861 0.704167 Al
0.913194 0.413194 0.704167 Al
0.913194 0.746528 0.704167 Al
0.913194 0.079861 0.704167 Al
0.246528 0.413194 0.704167 Al
0.246528 0.746528 0.704167 Al
0.246528 0.079861 0.704167 Al
0.663194 0.663194 0.704167 Al
0.663194 0.996528 0.704167 Al
0.663194 0.329861 0.704167 Al
0.996528 0.663194 0.704167 Al
0.996528 0.996528 0.704167 Al
0.996528 0.329861 0.704167 Al
0.329861 0.663194 0.704167 Al
0.329861 0.996528 0.704167 Al
0.329861 0.329861 0.704167 Al
0.496528 0.496528 0.704167 Al
0.496528 0.829861 0.704167 Al
0.496528 0.163194 0.704167 Al
0.829861 0.496528 0.704167 Al
0.829861 0.829861 0.704167 Al
0.829861 0.163194 0.704167 Al
0.163194 0.496528 0.704167 Al
0.163194 0.829861 0.704167 Al
0.163194 0.163194 0.704167 Al
0.524306 0.690972 0.670833 Al
0.524306 0.024306 0.670833 Al
0.524306 0.357639 0.670833 Al
0.857639 0.690972 0.670833 Al
0.857639 0.024306 0.670833 Al
0.857639 0.357639 0.670833 Al
0.190972 0.690972 0.670833 Al
0.190972 0.024306 0.670833 Al
0.190972 0.357639 0.670833 Al
0.690972 0.524306 0.670833 Al
0.690972 0.857639 0.670833 Al
0.690972 0.190972 0.670833 Al
0.024306 0.524306 0.670833 Al
0.024306 0.857639 0.670833 Al
0.024306 0.190972 0.670833 Al
0.357639 0.524306 0.670833 Al
0.357639 0.857639 0.670833 Al
0.357639 0.190972 0.670833 Al
0.565972 0.649306 0.720833 Al
0.565972 0.982639 0.720833 Al
0.565972 0.315972 0.720833 Al
0.899306 0.649306 0.720833 Al
0.899306 0.982639 0.720833 Al
0.899306 0.315972 0.720833 Al
0.232639 0.649306 0.720833 Al
0.232639 0.982639 0.720833 Al
0.232639 0.315972 0.720833 Al
0.399306 0.482639 0.720833 Al
0.399306 0.815972 0.720833 Al
0.399306 0.149306 0.720833 Al
0.732639 0.482639 0.720833 Al
0.732639 0.815972 0.720833 Al
0.732639 0.149306 0.720833 Al
0.065972 0.482639 0.720833 Al
0.065972 0.815972 0.720833 Al
0.065972 0.149306 0.720833 Al
0.427083 0.677083 0.687500 Al
0.427083 0.010417 0.687500 Al
0.427083 0.343750 0.687500 Al
0.760417 0.677083 0.687500 Al
0.760417 0.010417 0.687500 Al
0.760417 0.343750 0.687500 Al
0.093750 0.677083 0.687500 Al
0.093750 0.010417 0.687500 Al
0.093750 0.343750 0.687500 Al
0.593750 0.510417 0.687500 Al
0.593750 0.843750 0.687500 Al
0.593750 0.177083 0.687500 Al
0.927083 0.510417 0.687500 Al
0.927083 0.843750 0.687500 Al
0.927083 0.177083 0.687500 Al
0.260417 0.510417 0.687500 Al
0.260417 0.843750 0.687500 Al
0.260417 0.177083 0.687500 Al
0.649306 0.565972 0.720833 Al
0.649306 0.899306 0.720833 Al
0.649306 0.232639 0.720833 Al
0.982639 0.565972 0.720833 Al
0.982639 0.899306 0.720833 Al
0.982639 0.232639 0.720833 Al
0.315972 0.565972 0.720833 Al
0.315972 0.899306 0.720833 Al
0.315972 0.232639 0.720833 Al
0.482639 0.399306 0.720833 Al
0.482639 0.732639 0.720833 Al
0.482639 0.065972 0.720833 Al
0.815972 0.399306 0.720833 Al
0.815972 0.732639 0.720833 Al
0.815972 0.065972 0.720833 Al
0.149306 0.399306 0.720833 Al
0.149306 0.732639 0.720833 Al
0.149306 0.065972 0.720833 Al
0.510417 0.593750 0.687500 Al
0.510417 0.927083 0.687500 Al
0.510417 0.260417 0.687500 Al
0.843750 0.593750 0.687500 Al
0.843750 0.927083 0.687500 Al