bulk@mp_149                             
   1.00000000000000     
     3.3641499856336465   -0.0000000025027128    1.9422927388141200
     1.1213829913335249    3.1717517190189715    1.9422927388141193
    -0.0000000025909987   -0.0000000018321133    3.8845864866703130
   Si
     2
Direct
  0.8750000000000000  0.8750000000000000  0.8750000000000000
  0.1250000000000000  0.1250000000000000  0.1250000000000000
 
  0.00000000E+00  0.00000000E+00  0.00000000E+00
  0.00000000E+00  0.00000000E+00  0.00000000E+00
