AGGAC = 0.0
EDIFF = 1E-7
EDIFFG = -1E-3
ENCUT = 500
GGA = BO
IBRION = 1
ISIF = 3
ISMEAR = 0
ISPIN = 2
LCHARG = .TRUE.
LORBIT = 11
LUSE_VDW = .TRUE.
LVHAR = .TRUE.
LVTOT = .TRUE.
LWAVE = .FALSE.
NEDOS = 5000
NELM = 500
NPAR = 4
NSW = 500
PARAM1 = 0.1833333333
PARAM2 = 0.22
PREC = Accurate
