PREC=Accurate
ISMEAR=0
IBRION=2
GGA=BO
PARAM1=0.1833333333
PARAM2=0.22
LUSE_VDW=.TRUE.
AGGAC=0.0
EDIFF=1E-7
NSW=500
NELM=500
ISIF=3
LCHARG=.TRUE.
LWAVE=.FALSE.
ENCUT=500
EDIFFG=-0.001
NEDOS=5000
LORBIT=11
LVTOT=.TRUE.
LVHAR=.TRUE.
ISPIN=2
