Automatic kpoint scheme
0
Gamma
13 13 13
