Automatic kpoint scheme
0
Gamma
20 20 20
