System
1.0
1.595158 -2.762894 0.0
1.595158 2.762894 0.0
0.0 0.0 34.879004
Mo S
1 2
direct
0.666667 0.333333 0.106647 
0.333333 0.666667 0.061781 
0.333333 0.666667 0.151514 
