guiding_centres = TRUE 
kmesh_tol=1e-09
num_wann =16
dis_froz_max =-2.0
dis_froz_min =2.0
dis_num_iter =100
dis_mix_ratio =0.5
num_iter =100
num_print_cycles =50
begin projections
Si:s,p
end projections
