Automatic kpoint scheme
0
Gamma
19 19 19
