Automatic kpoint scheme
0
Gamma
10 10 10
