AGGAC = 0.0
EDIFF = 1E-7
ENCUT = 650
GGA = BO
IBRION = 2
ISMEAR = 0
LCHARG = .FALSE.
LUSE_VDW = .TRUE.
LWAVE = .FALSE.
NELM = 400
NPAR = 4
NSW = 1
PARAM1 = 0.1833333333
PARAM2 = 0.22
PREC = Accurate
