Al288
1.0
16.200000 0.000000 0.000000
0.000000 17.182695 0.000000
0.000000 0.000000 17.182695
Al
288
direct
0.224398 0.010380 0.010380 Al
0.224398 0.010380 0.177047 Al
0.224398 0.010380 0.343713 Al
0.224398 0.010380 0.510380 Al
0.224398 0.010380 0.677047 Al
0.224398 0.010380 0.843713 Al
0.224398 0.177047 0.010380 Al
0.224398 0.177047 0.177047 Al
0.224398 0.177047 0.343713 Al
0.224398 0.177047 0.510380 Al
0.224398 0.177047 0.677047 Al
0.224398 0.177047 0.843713 Al
0.224398 0.343713 0.010380 Al
0.224398 0.343713 0.177047 Al
0.224398 0.343713 0.343713 Al
0.224398 0.343713 0.510380 Al
0.224398 0.343713 0.677047 Al
0.224398 0.343713 0.843713 Al
0.224398 0.510380 0.010380 Al
0.224398 0.510380 0.177047 Al
0.224398 0.510380 0.343713 Al
0.224398 0.510380 0.510380 Al
0.224398 0.510380 0.677047 Al
0.224398 0.510380 0.843713 Al
0.224398 0.677047 0.010380 Al
0.224398 0.677047 0.177047 Al
0.224398 0.677047 0.343713 Al
0.224398 0.677047 0.510380 Al
0.224398 0.677047 0.677047 Al
0.224398 0.677047 0.843713 Al
0.224398 0.843713 0.010380 Al
0.224398 0.843713 0.177047 Al
0.224398 0.843713 0.343713 Al
0.224398 0.843713 0.510380 Al
0.224398 0.843713 0.677047 Al
0.224398 0.843713 0.843713 Al
0.474398 0.010380 0.010380 Al
0.474398 0.010380 0.177047 Al
0.474398 0.010380 0.343713 Al
0.474398 0.010380 0.510380 Al
0.474398 0.010380 0.677047 Al
0.474398 0.010380 0.843713 Al
0.474398 0.177047 0.010380 Al
0.474398 0.177047 0.177047 Al
0.474398 0.177047 0.343713 Al
0.474398 0.177047 0.510380 Al
0.474398 0.177047 0.677047 Al
0.474398 0.177047 0.843713 Al
0.474398 0.343713 0.010380 Al
0.474398 0.343713 0.177047 Al
0.474398 0.343713 0.343713 Al
0.474398 0.343713 0.510380 Al
0.474398 0.343713 0.677047 Al
0.474398 0.343713 0.843713 Al
0.474398 0.510380 0.010380 Al
0.474398 0.510380 0.177047 Al
0.474398 0.510380 0.343713 Al
0.474398 0.510380 0.510380 Al
0.474398 0.510380 0.677047 Al
0.474398 0.510380 0.843713 Al
0.474398 0.677047 0.010380 Al
0.474398 0.677047 0.177047 Al
0.474398 0.677047 0.343713 Al
0.474398 0.677047 0.510380 Al
0.474398 0.677047 0.677047 Al
0.474398 0.677047 0.843713 Al
0.474398 0.843713 0.010380 Al
0.474398 0.843713 0.177047 Al
0.474398 0.843713 0.343713 Al
0.474398 0.843713 0.510380 Al
0.474398 0.843713 0.677047 Al
0.474398 0.843713 0.843713 Al
0.724398 0.010380 0.010380 Al
0.724398 0.010380 0.177047 Al
0.724398 0.010380 0.343713 Al
0.724398 0.010380 0.510380 Al
0.724398 0.010380 0.677047 Al
0.724398 0.010380 0.843713 Al
0.724398 0.177047 0.010380 Al
0.724398 0.177047 0.177047 Al
0.724398 0.177047 0.343713 Al
0.724398 0.177047 0.510380 Al
0.724398 0.177047 0.677047 Al
0.724398 0.177047 0.843713 Al
0.724398 0.343713 0.010380 Al
0.724398 0.343713 0.177047 Al
0.724398 0.343713 0.343713 Al
0.724398 0.343713 0.510380 Al
0.724398 0.343713 0.677047 Al
0.724398 0.343713 0.843713 Al
0.724398 0.510380 0.010380 Al
0.724398 0.510380 0.177047 Al
0.724398 0.510380 0.343713 Al
0.724398 0.510380 0.510380 Al
0.724398 0.510380 0.677047 Al
0.724398 0.510380 0.843713 Al
0.724398 0.677047 0.010380 Al
0.724398 0.677047 0.177047 Al
0.724398 0.677047 0.343713 Al
0.724398 0.677047 0.510380 Al
0.724398 0.677047 0.677047 Al
0.724398 0.677047 0.843713 Al
0.724398 0.843713 0.010380 Al
0.724398 0.843713 0.177047 Al
0.724398 0.843713 0.343713 Al
0.724398 0.843713 0.510380 Al
0.724398 0.843713 0.677047 Al
0.724398 0.843713 0.843713 Al
0.974398 0.010380 0.010380 Al
0.974398 0.010380 0.177047 Al
0.974398 0.010380 0.343713 Al
0.974398 0.010380 0.510380 Al
0.974398 0.010380 0.677047 Al
0.974398 0.010380 0.843713 Al
0.974398 0.177047 0.010380 Al
0.974398 0.177047 0.177047 Al
0.974398 0.177047 0.343713 Al
0.974398 0.177047 0.510380 Al
0.974398 0.177047 0.677047 Al
0.974398 0.177047 0.843713 Al
0.974398 0.343713 0.010380 Al
0.974398 0.343713 0.177047 Al
0.974398 0.343713 0.343713 Al
0.974398 0.343713 0.510380 Al
0.974398 0.343713 0.677047 Al
0.974398 0.343713 0.843713 Al
0.974398 0.510380 0.010380 Al
0.974398 0.510380 0.177047 Al
0.974398 0.510380 0.343713 Al
0.974398 0.510380 0.510380 Al
0.974398 0.510380 0.677047 Al
0.974398 0.510380 0.843713 Al
0.974398 0.677047 0.010380 Al
0.974398 0.677047 0.177047 Al
0.974398 0.677047 0.343713 Al
0.974398 0.677047 0.510380 Al
0.974398 0.677047 0.677047 Al
0.974398 0.677047 0.843713 Al
0.974398 0.843713 0.010380 Al
0.974398 0.843713 0.177047 Al
0.974398 0.843713 0.343713 Al
0.974398 0.843713 0.510380 Al
0.974398 0.843713 0.677047 Al
0.974398 0.843713 0.843713 Al
0.099398 0.093713 0.093713 Al
0.099398 0.093713 0.260380 Al
0.099398 0.093713 0.427047 Al
0.099398 0.093713 0.593713 Al
0.099398 0.093713 0.760380 Al
0.099398 0.093713 0.927047 Al
0.099398 0.260380 0.093713 Al
0.099398 0.260380 0.260380 Al
0.099398 0.260380 0.427047 Al
0.099398 0.260380 0.593713 Al
0.099398 0.260380 0.760380 Al
0.099398 0.260380 0.927047 Al
0.099398 0.427047 0.093713 Al
0.099398 0.427047 0.260380 Al
0.099398 0.427047 0.427047 Al
0.099398 0.427047 0.593713 Al
0.099398 0.427047 0.760380 Al
0.099398 0.427047 0.927047 Al
0.099398 0.593713 0.093713 Al
0.099398 0.593713 0.260380 Al
0.099398 0.593713 0.427047 Al
0.099398 0.593713 0.593713 Al
0.099398 0.593713 0.760380 Al
0.099398 0.593713 0.927047 Al
0.099398 0.760380 0.093713 Al
0.099398 0.760380 0.260380 Al
0.099398 0.760380 0.427047 Al
0.099398 0.760380 0.593713 Al
0.099398 0.760380 0.760380 Al
0.099398 0.760380 0.927047 Al
0.099398 0.927047 0.093713 Al
0.099398 0.927047 0.260380 Al
0.099398 0.927047 0.427047 Al
0.099398 0.927047 0.593713 Al
0.099398 0.927047 0.760380 Al
0.099398 0.927047 0.927047 Al
0.349398 0.093713 0.093713 Al
0.349398 0.093713 0.260380 Al
0.349398 0.093713 0.427047 Al
0.349398 0.093713 0.593713 Al
0.349398 0.093713 0.760380 Al
0.349398 0.093713 0.927047 Al
0.349398 0.260380 0.093713 Al
0.349398 0.260380 0.260380 Al
0.349398 0.260380 0.427047 Al
0.349398 0.260380 0.593713 Al
0.349398 0.260380 0.760380 Al
0.349398 0.260380 0.927047 Al
0.349398 0.427047 0.093713 Al
0.349398 0.427047 0.260380 Al
0.349398 0.427047 0.427047 Al
0.349398 0.427047 0.593713 Al
0.349398 0.427047 0.760380 Al
0.349398 0.427047 0.927047 Al
0.349398 0.593713 0.093713 Al
0.349398 0.593713 0.260380 Al
0.349398 0.593713 0.427047 Al
0.349398 0.593713 0.593713 Al
0.349398 0.593713 0.760380 Al
0.349398 0.593713 0.927047 Al
0.349398 0.760380 0.093713 Al
0.349398 0.760380 0.260380 Al
0.349398 0.760380 0.427047 Al
0.349398 0.760380 0.593713 Al
0.349398 0.760380 0.760380 Al
0.349398 0.760380 0.927047 Al
0.349398 0.927047 0.093713 Al
0.349398 0.927047 0.260380 Al
0.349398 0.927047 0.427047 Al
0.349398 0.927047 0.593713 Al
0.349398 0.927047 0.760380 Al
0.349398 0.927047 0.927047 Al
0.599398 0.093713 0.093713 Al
0.599398 0.093713 0.260380 Al
0.599398 0.093713 0.427047 Al
0.599398 0.093713 0.593713 Al
0.599398 0.093713 0.760380 Al
0.599398 0.093713 0.927047 Al
0.599398 0.260380 0.093713 Al
0.599398 0.260380 0.260380 Al
0.599398 0.260380 0.427047 Al
0.599398 0.260380 0.593713 Al
0.599398 0.260380 0.760380 Al
0.599398 0.260380 0.927047 Al
0.599398 0.427047 0.093713 Al
0.599398 0.427047 0.260380 Al
0.599398 0.427047 0.427047 Al
0.599398 0.427047 0.593713 Al
0.599398 0.427047 0.760380 Al
0.599398 0.427047 0.927047 Al
0.599398 0.593713 0.093713 Al
0.599398 0.593713 0.260380 Al
0.599398 0.593713 0.427047 Al
0.599398 0.593713 0.593713 Al
0.599398 0.593713 0.760380 Al
0.599398 0.593713 0.927047 Al
0.599398 0.760380 0.093713 Al
0.599398 0.760380 0.260380 Al
0.599398 0.760380 0.427047 Al
0.599398 0.760380 0.593713 Al
0.599398 0.760380 0.760380 Al
0.599398 0.760380 0.927047 Al
0.599398 0.927047 0.093713 Al
0.599398 0.927047 0.260380 Al
0.599398 0.927047 0.427047 Al
0.599398 0.927047 0.593713 Al
0.599398 0.927047 0.760380 Al
0.599398 0.927047 0.927047 Al
0.849398 0.093713 0.093713 Al
0.849398 0.093713 0.260380 Al
0.849398 0.093713 0.427047 Al
0.849398 0.093713 0.593713 Al
0.849398 0.093713 0.760380 Al
0.849398 0.093713 0.927047 Al
0.849398 0.260380 0.093713 Al
0.849398 0.260380 0.260380 Al
0.849398 0.260380 0.427047 Al
0.849398 0.260380 0.593713 Al
0.849398 0.260380 0.760380 Al
0.849398 0.260380 0.927047 Al
0.849398 0.427047 0.093713 Al
0.849398 0.427047 0.260380 Al
0.849398 0.427047 0.427047 Al
0.849398 0.427047 0.593713 Al
0.849398 0.427047 0.760380 Al
0.849398 0.427047 0.927047 Al
0.849398 0.593713 0.093713 Al
0.849398 0.593713 0.260380 Al
0.849398 0.593713 0.427047 Al
0.849398 0.593713 0.593713 Al
0.849398 0.593713 0.760380 Al
0.849398 0.593713 0.927047 Al
0.849398 0.760380 0.093713 Al
0.849398 0.760380 0.260380 Al
0.849398 0.760380 0.427047 Al
0.849398 0.760380 0.593713 Al
0.849398 0.760380 0.760380 Al
0.849398 0.760380 0.927047 Al
0.849398 0.927047 0.093713 Al
0.849398 0.927047 0.260380 Al
0.849398 0.927047 0.427047 Al
0.849398 0.927047 0.593713 Al
0.849398 0.927047 0.760380 Al
0.849398 0.927047 0.927047 Al
