Al2
1.0
4.050000 0.000000 0.000000
0.000000 2.863782 0.000000
0.000000 0.000000 2.863782
Al
2
direct
0.897593 0.062281 0.062281 Al
0.397593 0.562281 0.562281 Al
