C
1.0
1.2320971008984494 -2.1340542301747005 0.0
1.2320971008984494 2.1340542301747005 0.0
0.0 0.0 30.803073
C
2
direct
0.0 0.0 0.0633300000000006
0.3333330000000032 0.6666669999999968 0.0633300000000006
