Non SCF run along symmetry lines
164
Reciprocal
0.000000 0.000000 0.000000 1 \Gamma 
0.021739 0.000000 0.021739 1  
0.043478 0.000000 0.043478 1  
0.065217 0.000000 0.065217 1  
0.086957 0.000000 0.086957 1  
0.108696 0.000000 0.108696 1  
0.130435 0.000000 0.130435 1  
0.152174 0.000000 0.152174 1  
0.173913 0.000000 0.173913 1  
0.195652 0.000000 0.195652 1  
0.217391 0.000000 0.217391 1  
0.239130 0.000000 0.239130 1  
0.260870 0.000000 0.260870 1  
0.282609 0.000000 0.282609 1  
0.304348 0.000000 0.304348 1  
0.326087 0.000000 0.326087 1  
0.347826 0.000000 0.347826 1  
0.369565 0.000000 0.369565 1  
0.391304 0.000000 0.391304 1  
0.413043 0.000000 0.413043 1  
0.434783 0.000000 0.434783 1  
0.456522 0.000000 0.456522 1  
0.478261 0.000000 0.478261 1  
0.500000 0.000000 0.500000 1 X 
0.500000 0.000000 0.500000 1 X 
0.500000 0.020833 0.520833 1  
0.500000 0.041667 0.541667 1  
0.500000 0.062500 0.562500 1  
0.500000 0.083333 0.583333 1  
0.500000 0.104167 0.604167 1  
0.500000 0.125000 0.625000 1  
0.500000 0.145833 0.645833 1  
0.500000 0.166667 0.666667 1  
0.500000 0.187500 0.687500 1  
0.500000 0.208333 0.708333 1  
0.500000 0.229167 0.729167 1  
0.500000 0.250000 0.750000 1 W 
0.500000 0.250000 0.750000 1 W 
0.486111 0.263889 0.750000 1  
0.472222 0.277778 0.750000 1  
0.458333 0.291667 0.750000 1  
0.444444 0.305556 0.750000 1  
0.430556 0.319444 0.750000 1  
0.416667 0.333333 0.750000 1  
0.402778 0.347222 0.750000 1  
0.388889 0.361111 0.750000 1  
0.375000 0.375000 0.750000 1 K 
0.375000 0.375000 0.750000 1 K 
0.360000 0.360000 0.720000 1  
0.345000 0.345000 0.690000 1  
0.330000 0.330000 0.660000 1  
0.315000 0.315000 0.630000 1  
0.300000 0.300000 0.600000 1  
0.285000 0.285000 0.570000 1  
0.270000 0.270000 0.540000 1  
0.255000 0.255000 0.510000 1  
0.240000 0.240000 0.480000 1  
0.225000 0.225000 0.450000 1  
0.210000 0.210000 0.420000 1  
0.195000 0.195000 0.390000 1  
0.180000 0.180000 0.360000 1  
0.165000 0.165000 0.330000 1  
0.150000 0.150000 0.300000 1  
0.135000 0.135000 0.270000 1  
0.120000 0.120000 0.240000 1  
0.105000 0.105000 0.210000 1  
0.090000 0.090000 0.180000 1  
0.075000 0.075000 0.150000 1  
0.060000 0.060000 0.120000 1  
0.045000 0.045000 0.090000 1  
0.030000 0.030000 0.060000 1  
0.015000 0.015000 0.030000 1  
0.000000 0.000000 0.000000 1 \Gamma 
0.000000 0.000000 0.000000 1 \Gamma 
0.025000 0.025000 0.025000 1  
0.050000 0.050000 0.050000 1  
0.075000 0.075000 0.075000 1  
0.100000 0.100000 0.100000 1  
0.125000 0.125000 0.125000 1  
0.150000 0.150000 0.150000 1  
0.175000 0.175000 0.175000 1  
0.200000 0.200000 0.200000 1  
0.225000 0.225000 0.225000 1  
0.250000 0.250000 0.250000 1  
0.275000 0.275000 0.275000 1  
0.300000 0.300000 0.300000 1  
0.325000 0.325000 0.325000 1  
0.350000 0.350000 0.350000 1  
0.375000 0.375000 0.375000 1  
0.400000 0.400000 0.400000 1  
0.425000 0.425000 0.425000 1  
0.450000 0.450000 0.450000 1  
0.475000 0.475000 0.475000 1  
0.500000 0.500000 0.500000 1 L 
0.500000 0.500000 0.500000 1 L 
0.508333 0.483333 0.508333 1  
0.516667 0.466667 0.516667 1  
0.525000 0.450000 0.525000 1  
0.533333 0.433333 0.533333 1  
0.541667 0.416667 0.541667 1  
0.550000 0.400000 0.550000 1  
0.558333 0.383333 0.558333 1  
0.566667 0.366667 0.566667 1  
0.575000 0.350000 0.575000 1  
0.583333 0.333333 0.583333 1  
0.591667 0.316667 0.591667 1  
0.600000 0.300000 0.600000 1  
0.608333 0.283333 0.608333 1  
0.616667 0.266667 0.616667 1  
0.625000 0.250000 0.625000 1 U 
0.625000 0.250000 0.625000 1 U 
0.611111 0.250000 0.638889 1  
0.597222 0.250000 0.652778 1  
0.583333 0.250000 0.666667 1  
0.569444 0.250000 0.680556 1  
0.555556 0.250000 0.694444 1  
0.541667 0.250000 0.708333 1  
0.527778 0.250000 0.722222 1  
0.513889 0.250000 0.736111 1  
0.500000 0.250000 0.750000 1 W 
0.500000 0.250000 0.750000 1 W 
0.500000 0.264706 0.735294 1  
0.500000 0.279412 0.720588 1  
0.500000 0.294118 0.705882 1  
0.500000 0.308824 0.691176 1  
0.500000 0.323529 0.676471 1  
0.500000 0.338235 0.661765 1  
0.500000 0.352941 0.647059 1  
0.500000 0.367647 0.632353 1  
0.500000 0.382353 0.617647 1  
0.500000 0.397059 0.602941 1  
0.500000 0.411765 0.588235 1  
0.500000 0.426471 0.573529 1  
0.500000 0.441176 0.558824 1  
0.500000 0.455882 0.544118 1  
0.500000 0.470588 0.529412 1  
0.500000 0.485294 0.514706 1  
0.500000 0.500000 0.500000 1 L 
0.500000 0.500000 0.500000 1 L 
0.491667 0.491667 0.516667 1  
0.483333 0.483333 0.533333 1  
0.475000 0.475000 0.550000 1  
0.466667 0.466667 0.566667 1  
0.458333 0.458333 0.583333 1  
0.450000 0.450000 0.600000 1  
0.441667 0.441667 0.616667 1  
0.433333 0.433333 0.633333 1  
0.425000 0.425000 0.650000 1  
0.416667 0.416667 0.666667 1  
0.408333 0.408333 0.683333 1  
0.400000 0.400000 0.700000 1  
0.391667 0.391667 0.716667 1  
0.383333 0.383333 0.733333 1  
0.375000 0.375000 0.750000 1 K 
0.625000 0.250000 0.625000 1 U 
0.611111 0.222222 0.611111 1  
0.597222 0.194444 0.597222 1  
0.583333 0.166667 0.583333 1  
0.569444 0.138889 0.569444 1  
0.555556 0.111111 0.555556 1  
0.541667 0.083333 0.541667 1  
0.527778 0.055556 0.527778 1  
0.513889 0.027778 0.513889 1  
0.500000 0.000000 0.500000 1 X 
