bulk@JVASP-1002                         
1.0
0.0 2.746821137593573 2.746821137593573
2.746821137593573 0.0 2.746821137593573
2.746821137593573 2.746821137593573 0.0
Si
2
direct
0.75 0.75 0.75 
0.5 0.5 0.5 
