JVASP-35938                
   1.00000000000000     
     0.0000000000000000    3.7059118063545169    0.0104683547302095
     2.9961083171060237    0.0000000000000000    0.0000000000000000
     0.0000000000000000   -0.8697060526745060   -5.5859646428762586
   Li   Be   B 
     2     2     2
Direct
  0.2272136088546792  0.7500000000000000  0.3413496714652234
  0.7727863911453208  0.2500000000000000  0.6586503285347765
  0.3506499022982454  0.7500000000000000  0.8852793824380563
  0.6493500977017547  0.2500000000000000  0.1147206175619439
  0.8821885703850006  0.7500000000000000  0.9728223659273887
  0.1178114296149991  0.2500000000000000  0.0271776340726112
 
  0.00000000E+00  0.00000000E+00  0.00000000E+00
  0.00000000E+00  0.00000000E+00  0.00000000E+00
  0.00000000E+00  0.00000000E+00  0.00000000E+00
  0.00000000E+00  0.00000000E+00  0.00000000E+00
  0.00000000E+00  0.00000000E+00  0.00000000E+00
  0.00000000E+00  0.00000000E+00  0.00000000E+00

