JVASP-29622              
   1.00000000000000     
     6.9614381561878309    0.0000000000000000   -0.1582972024209857
     0.0000000000000000    7.7628863098903036    0.0000000000000000
    -0.0387969105206749    0.0000000000000000    9.7747645214619148
   Sn   P    Se
     4     4    12
Direct
  0.9816797479543862  0.8722073461786571  0.7794796671381664
  0.5315925916350712  0.3618017794460074  0.7839725823979105
  0.4816797479543862  0.1277926538213431  0.2794796671381659
  0.0315925916350718  0.6381982205539927  0.2839725823979107
  0.5610294261602876  0.6409602557079053  0.4348299405780043
  0.0610294261602876  0.3590397442920947  0.9348299405780041
  0.9394448240120387  0.1446344286644025  0.0647448275432620
  0.4394448240120389  0.8553655713355971  0.5647448275432622
  0.1581045027231933  0.9384469644224481  0.0550634162121514
  0.3926524845551151  0.7448889145851153  0.7703408491576215
  0.3294243155183182  0.4527508012067903  0.0373843914462575
  0.1106601328358831  0.2412148098209504  0.7315853833234477
  0.6581045027231933  0.0615530355775517  0.5550634162121515
  0.8321053166142900  0.5575480617178629  0.9434650550695625
  0.6746066579914215  0.0496002892978380  0.9539348871336140
  0.8926524845551151  0.2551110854148840  0.2703408491576220
  0.1746066579914216  0.9503997107021620  0.4539348871336139
  0.8294243155183179  0.5472491987932101  0.5373843914462574
  0.3321053166142900  0.4424519382821372  0.4434650550695629
  0.6106601328358832  0.7587851901790498  0.2315853833234477
 
  0.00000000E+00  0.00000000E+00  0.00000000E+00
  0.00000000E+00  0.00000000E+00  0.00000000E+00
  0.00000000E+00  0.00000000E+00  0.00000000E+00
  0.00000000E+00  0.00000000E+00  0.00000000E+00
  0.00000000E+00  0.00000000E+00  0.00000000E+00
  0.00000000E+00  0.00000000E+00  0.00000000E+00
  0.00000000E+00  0.00000000E+00  0.00000000E+00
  0.00000000E+00  0.00000000E+00  0.00000000E+00
  0.00000000E+00  0.00000000E+00  0.00000000E+00
  0.00000000E+00  0.00000000E+00  0.00000000E+00
  0.00000000E+00  0.00000000E+00  0.00000000E+00
  0.00000000E+00  0.00000000E+00  0.00000000E+00
  0.00000000E+00  0.00000000E+00  0.00000000E+00
  0.00000000E+00  0.00000000E+00  0.00000000E+00
  0.00000000E+00  0.00000000E+00  0.00000000E+00
  0.00000000E+00  0.00000000E+00  0.00000000E+00
  0.00000000E+00  0.00000000E+00  0.00000000E+00
  0.00000000E+00  0.00000000E+00  0.00000000E+00
  0.00000000E+00  0.00000000E+00  0.00000000E+00
  0.00000000E+00  0.00000000E+00  0.00000000E+00

