JVASP-5335                    
   1.00000000000000     
     6.3900256972728231    0.0040305211576960   -0.0171356763407250
     3.1932431242784487    5.7710013842921182   -0.0836985969214798
     2.7016061206605251    1.8789485728181785    6.5196457990081864
   Nb   Se   Cl
     2     4     4
Direct
  0.8714397626129456  0.2586764584627222  0.0001078358329616
  0.1285602373870550  0.7413235415372776 -0.0001078358329616
  0.9135487550625176  0.8948979621108273  0.3359485557351567
  0.0864512449374822  0.1051020378891731  0.6640514442648425
  0.7307980151088412  0.0465568866961356  0.8530732762485008
  0.2692019848911588  0.9534431133038641  0.1469267237514996
  0.8393660335256811  0.5136559572572107  0.2182719733208309
  0.1606339664743194  0.4863440427427886  0.7817280266791687
  0.4227618572036214  0.3530192451904087  0.2194482299235949
  0.5772381427963789  0.6469807548095909  0.7805517700764049
 
  0.00000000E+00  0.00000000E+00  0.00000000E+00
  0.00000000E+00  0.00000000E+00  0.00000000E+00
  0.00000000E+00  0.00000000E+00  0.00000000E+00
  0.00000000E+00  0.00000000E+00  0.00000000E+00
  0.00000000E+00  0.00000000E+00  0.00000000E+00
  0.00000000E+00  0.00000000E+00  0.00000000E+00
  0.00000000E+00  0.00000000E+00  0.00000000E+00
  0.00000000E+00  0.00000000E+00  0.00000000E+00
  0.00000000E+00  0.00000000E+00  0.00000000E+00
  0.00000000E+00  0.00000000E+00  0.00000000E+00

