bulk@JVASP-54865                       
   1.00000000000000     
     3.9652870275915717   -0.0000000000000000   -1.3654657444341329
     0.0000000000000000    4.8347100157825755   -0.0000000000000000
    -0.0230940588926954    0.0000000000000000    6.3732290771413540
   Tl   Cl
     2     2
Direct
  0.6142219377398956  0.2500000000000000  0.2284428754745076
  0.3857780622601045  0.7500000000000000  0.7715571245254923
  0.1353783416269153  0.7500000000000000  0.2707566832509549
  0.8646216583730845  0.2500000000000000  0.7292433167490452
 
  0.00000000E+00  0.00000000E+00  0.00000000E+00
  0.00000000E+00  0.00000000E+00  0.00000000E+00
  0.00000000E+00  0.00000000E+00  0.00000000E+00
  0.00000000E+00  0.00000000E+00  0.00000000E+00

