JVASP-4216        
   1.00000000000000     
     3.7235048976988048    0.0000000109790518   -0.0000000130159839
    -1.8617529179195951    7.7796094326246470   -2.2012867422791791
    -0.0000000372504852    0.0270902714574611    9.6451679571725357
   Si   As
     6     6
Direct
  0.1309967904613944  0.2619925809476460  0.4161190354314820
  0.8690032095386059  0.7380074190523540  0.5838809645685180
  0.2382453913371038  0.4764897826515515  0.2920541106260935
  0.7617546086628959  0.5235102173484485  0.7079458893739068
  0.5665745922345429  0.1331491844738764  0.0892594492019449
  0.4334254077654575  0.8668508155261235  0.9107405507980548
  0.1525854467357395  0.3051698934549099  0.0450917656366612
  0.8474145532642605  0.6948301065450899  0.9549082343633386
  0.1631693014158110  0.3263386028591426  0.6752847435622255
  0.8368306985841885  0.6736613971408570  0.3247152564377745
  0.5363071691319339  0.0726143382980608  0.3244475555572946
  0.4636928308680661  0.9273856617019389  0.6755524444427053
 
  0.00000000E+00  0.00000000E+00  0.00000000E+00
  0.00000000E+00  0.00000000E+00  0.00000000E+00
  0.00000000E+00  0.00000000E+00  0.00000000E+00
  0.00000000E+00  0.00000000E+00  0.00000000E+00
  0.00000000E+00  0.00000000E+00  0.00000000E+00
  0.00000000E+00  0.00000000E+00  0.00000000E+00
  0.00000000E+00  0.00000000E+00  0.00000000E+00
  0.00000000E+00  0.00000000E+00  0.00000000E+00
  0.00000000E+00  0.00000000E+00  0.00000000E+00
  0.00000000E+00  0.00000000E+00  0.00000000E+00
  0.00000000E+00  0.00000000E+00  0.00000000E+00
  0.00000000E+00  0.00000000E+00  0.00000000E+00

