bulk@JVASP-17319                        
   1.00000000000000     
     4.6177230360968720    0.0000000058569667   -1.3246280841979987
    -0.3799799362879998    4.6020624053894705   -1.3246280836099076
     0.1085654523591804    0.1178981649164624    9.0895887379854585
   As   Sr
     2     4
Direct
  0.8662573966735178  0.8662573966735559  0.7325147933470723
  0.1337426033264819  0.1337426033264442  0.2674852066529277
  0.3188981944473364  0.3188981944472888  0.6377963888946342
  0.6811018055526635  0.6811018055527113  0.3622036111053658
  0.0000000000000000  0.5000000000000000 -0.0000000000000000
  0.5000000000000000  0.0000000000000000 -0.0000000000000000
 
  0.00000000E+00  0.00000000E+00  0.00000000E+00
  0.00000000E+00  0.00000000E+00  0.00000000E+00
  0.00000000E+00  0.00000000E+00  0.00000000E+00
  0.00000000E+00  0.00000000E+00  0.00000000E+00
  0.00000000E+00  0.00000000E+00  0.00000000E+00
  0.00000000E+00  0.00000000E+00  0.00000000E+00

