bulk@mp_541837
1.0
4.164174 0.039716 9.382914
2.020455 3.641385 9.382914
0.066727 0.039716 10.265231
Bi Se
2 3
direct
0.398435 0.398435 0.398435 Bi
0.601565 0.601565 0.601565 Bi
0.000000 0.000000 0.000000 Se
0.215715 0.215715 0.215715 Se
0.784285 0.784285 0.784285 Se
