JVASP-34317                  
   1.00000000000000     
     4.1373921048033244    0.0003627884124132    0.0000000000000000
    -0.0496671889042127    4.1370933786218416   -0.0000000000000000
     0.0000000000000000   -0.0000000000000000   22.5548650240044779
   Sn   S 
     2     2
Direct
  0.7526532960962762  0.7473467039038943  0.4348384182206838
  0.2526532960962763  0.2473467039038946  0.5651615817793162
  0.2133467039037247  0.2866532960961043  0.4508534825797295
  0.7133467039037249  0.7866532960961046  0.5491465174202704
 
  0.00000000E+00  0.00000000E+00  0.00000000E+00
  0.00000000E+00  0.00000000E+00  0.00000000E+00
  0.00000000E+00  0.00000000E+00  0.00000000E+00
  0.00000000E+00  0.00000000E+00  0.00000000E+00

