Automatic kpoint scheme
0
Gamma
11 11 11
