bulk@mp_149                             
   1.00000000000000     
     3.3641500000000000    0.0000000000000000    1.9422930000000000
     1.1213830000000000    3.1717520000000001    1.9422930000000000
     0.0000000000000000    0.0000000000000000    3.8845860000000001
   Si
     2
Direct
  0.8750000000000000  0.8750000000000000  0.8750000000000000
  0.1250000000000000  0.1250000000000000  0.1250000000000000
 
  0.00000000E+00  0.00000000E+00  0.00000000E+00
  0.00000000E+00  0.00000000E+00  0.00000000E+00
