Automatic kpoint scheme
0
Gamma
17 17 17
