PREC=Accurate
ISMEAR=0
IBRION=1
GGA=BO
PARAM1=0.1833333333
PARAM2=0.22
LUSE_VDW=.TRUE.
AGGAC=0.0
EDIFF=1E-7
NSW=1
NELM=500
ISIF=2
LCHARG=.FALSE.
LWAVE=.FALSE.
NBANDS=96
ENCUT=500
NEDOS=5000
LORBIT=11
ISPIN=2
LOPTICS=.TRUE.
