Surf-2_2_1@vac25@size20
1.0
-20.250000 20.250000 0.000000
-12.150000 0.000000 24.300000
32.400000 32.400000 16.200000
Al
960
direct
0.544444 0.810185 0.284722 Al
0.544444 0.143519 0.284722 Al
0.544444 0.476852 0.284722 Al
0.744444 0.810185 0.284722 Al
0.744444 0.143519 0.284722 Al
0.744444 0.476852 0.284722 Al
0.944444 0.810185 0.284722 Al
0.944444 0.143519 0.284722 Al
0.944444 0.476852 0.284722 Al
0.144444 0.810185 0.284722 Al
0.144444 0.143519 0.284722 Al
0.144444 0.476852 0.284722 Al
0.344444 0.810185 0.284722 Al
0.344444 0.143519 0.284722 Al
0.344444 0.476852 0.284722 Al
0.500000 0.958333 0.312500 Al
0.500000 0.291667 0.312500 Al
0.500000 0.625000 0.312500 Al
0.700000 0.958333 0.312500 Al
0.700000 0.291667 0.312500 Al
0.700000 0.625000 0.312500 Al
0.900000 0.958333 0.312500 Al
0.900000 0.291667 0.312500 Al
0.900000 0.625000 0.312500 Al
0.100000 0.958333 0.312500 Al
0.100000 0.291667 0.312500 Al
0.100000 0.625000 0.312500 Al
0.300000 0.958333 0.312500 Al
0.300000 0.291667 0.312500 Al
0.300000 0.625000 0.312500 Al
0.577778 0.865741 0.326389 Al
0.577778 0.199074 0.326389 Al
0.577778 0.532407 0.326389 Al
0.777778 0.865741 0.326389 Al
0.777778 0.199074 0.326389 Al
0.777778 0.532407 0.326389 Al
0.977778 0.865741 0.326389 Al
0.977778 0.199074 0.326389 Al
0.977778 0.532407 0.326389 Al
0.177778 0.865741 0.326389 Al
0.177778 0.199074 0.326389 Al
0.177778 0.532407 0.326389 Al
0.377778 0.865741 0.326389 Al
0.377778 0.199074 0.326389 Al
0.377778 0.532407 0.326389 Al
0.622222 0.050926 0.298611 Al
0.622222 0.384259 0.298611 Al
0.622222 0.717593 0.298611 Al
0.822222 0.050926 0.298611 Al
0.822222 0.384259 0.298611 Al
0.822222 0.717593 0.298611 Al
0.022222 0.050926 0.298611 Al
0.022222 0.384259 0.298611 Al
0.022222 0.717593 0.298611 Al
0.222222 0.050926 0.298611 Al
0.222222 0.384259 0.298611 Al
0.222222 0.717593 0.298611 Al
0.422222 0.050926 0.298611 Al
0.422222 0.384259 0.298611 Al
0.422222 0.717593 0.298611 Al
0.477778 0.865741 0.326389 Al
0.477778 0.199074 0.326389 Al
0.477778 0.532407 0.326389 Al
0.677778 0.865741 0.326389 Al
0.677778 0.199074 0.326389 Al
0.677778 0.532407 0.326389 Al
0.877778 0.865741 0.326389 Al
0.877778 0.199074 0.326389 Al
0.877778 0.532407 0.326389 Al
0.077778 0.865741 0.326389 Al
0.077778 0.199074 0.326389 Al
0.077778 0.532407 0.326389 Al
0.277778 0.865741 0.326389 Al
0.277778 0.199074 0.326389 Al
0.277778 0.532407 0.326389 Al
0.522222 0.050926 0.298611 Al
0.522222 0.384259 0.298611 Al
0.522222 0.717593 0.298611 Al
0.722222 0.050926 0.298611 Al
0.722222 0.384259 0.298611 Al
0.722222 0.717593 0.298611 Al
0.922222 0.050926 0.298611 Al
0.922222 0.384259 0.298611 Al
0.922222 0.717593 0.298611 Al
0.122222 0.050926 0.298611 Al
0.122222 0.384259 0.298611 Al
0.122222 0.717593 0.298611 Al
0.322222 0.050926 0.298611 Al
0.322222 0.384259 0.298611 Al
0.322222 0.717593 0.298611 Al
0.644444 0.810185 0.284722 Al
0.644444 0.143519 0.284722 Al
0.644444 0.476852 0.284722 Al
0.844444 0.810185 0.284722 Al
0.844444 0.143519 0.284722 Al
0.844444 0.476852 0.284722 Al
0.044444 0.810185 0.284722 Al
0.044444 0.143519 0.284722 Al
0.044444 0.476852 0.284722 Al
0.244444 0.810185 0.284722 Al
0.244444 0.143519 0.284722 Al
0.244444 0.476852 0.284722 Al
0.444444 0.810185 0.284722 Al
0.444444 0.143519 0.284722 Al
0.444444 0.476852 0.284722 Al
0.600000 0.958333 0.312500 Al
0.600000 0.291667 0.312500 Al
0.600000 0.625000 0.312500 Al
0.800000 0.958333 0.312500 Al
0.800000 0.291667 0.312500 Al
0.800000 0.625000 0.312500 Al
0.000000 0.958333 0.312500 Al
0.000000 0.291667 0.312500 Al
0.000000 0.625000 0.312500 Al
0.200000 0.958333 0.312500 Al
0.200000 0.291667 0.312500 Al
0.200000 0.625000 0.312500 Al
0.400000 0.958333 0.312500 Al
0.400000 0.291667 0.312500 Al
0.400000 0.625000 0.312500 Al
0.455556 0.773148 0.340278 Al
0.455556 0.106481 0.340278 Al
0.455556 0.439815 0.340278 Al
0.655556 0.773148 0.340278 Al
0.655556 0.106481 0.340278 Al
0.655556 0.439815 0.340278 Al
0.855556 0.773148 0.340278 Al
0.855556 0.106481 0.340278 Al
0.855556 0.439815 0.340278 Al
0.055556 0.773148 0.340278 Al
0.055556 0.106481 0.340278 Al
0.055556 0.439815 0.340278 Al
0.255556 0.773148 0.340278 Al
0.255556 0.106481 0.340278 Al
0.255556 0.439815 0.340278 Al
0.411111 0.921296 0.368056 Al
0.411111 0.254630 0.368056 Al
0.411111 0.587963 0.368056 Al
0.611111 0.921296 0.368056 Al
0.611111 0.254630 0.368056 Al
0.611111 0.587963 0.368056 Al
0.811111 0.921296 0.368056 Al
0.811111 0.254630 0.368056 Al
0.811111 0.587963 0.368056 Al
0.011111 0.921296 0.368056 Al
0.011111 0.254630 0.368056 Al
0.011111 0.587963 0.368056 Al
0.211111 0.921296 0.368056 Al
0.211111 0.254630 0.368056 Al
0.211111 0.587963 0.368056 Al
0.488889 0.828704 0.381944 Al
0.488889 0.162037 0.381944 Al
0.488889 0.495370 0.381944 Al
0.688889 0.828704 0.381944 Al
0.688889 0.162037 0.381944 Al
0.688889 0.495370 0.381944 Al
0.888889 0.828704 0.381944 Al
0.888889 0.162037 0.381944 Al
0.888889 0.495370 0.381944 Al
0.088889 0.828704 0.381944 Al
0.088889 0.162037 0.381944 Al
0.088889 0.495370 0.381944 Al
0.288889 0.828704 0.381944 Al
0.288889 0.162037 0.381944 Al
0.288889 0.495370 0.381944 Al
0.533333 0.013889 0.354167 Al
0.533333 0.347222 0.354167 Al
0.533333 0.680556 0.354167 Al
0.733333 0.013889 0.354167 Al
0.733333 0.347222 0.354167 Al
0.733333 0.680556 0.354167 Al
0.933333 0.013889 0.354167 Al
0.933333 0.347222 0.354167 Al
0.933333 0.680556 0.354167 Al
0.133333 0.013889 0.354167 Al
0.133333 0.347222 0.354167 Al
0.133333 0.680556 0.354167 Al
0.333333 0.013889 0.354167 Al
0.333333 0.347222 0.354167 Al
0.333333 0.680556 0.354167 Al
0.388889 0.828704 0.381944 Al
0.388889 0.162037 0.381944 Al
0.388889 0.495370 0.381944 Al
0.588889 0.828704 0.381944 Al
0.588889 0.162037 0.381944 Al
0.588889 0.495370 0.381944 Al
0.788889 0.828704 0.381944 Al
0.788889 0.162037 0.381944 Al
0.788889 0.495370 0.381944 Al
0.988889 0.828704 0.381944 Al
0.988889 0.162037 0.381944 Al
0.988889 0.495370 0.381944 Al
0.188889 0.828704 0.381944 Al
0.188889 0.162037 0.381944 Al
0.188889 0.495370 0.381944 Al
0.433333 0.013889 0.354167 Al
0.433333 0.347222 0.354167 Al
0.433333 0.680556 0.354167 Al
0.633333 0.013889 0.354167 Al
0.633333 0.347222 0.354167 Al
0.633333 0.680556 0.354167 Al
0.833333 0.013889 0.354167 Al
0.833333 0.347222 0.354167 Al
0.833333 0.680556 0.354167 Al
0.033333 0.013889 0.354167 Al
0.033333 0.347222 0.354167 Al
0.033333 0.680556 0.354167 Al
0.233333 0.013889 0.354167 Al
0.233333 0.347222 0.354167 Al
0.233333 0.680556 0.354167 Al
0.555556 0.773148 0.340278 Al
0.555556 0.106481 0.340278 Al
0.555556 0.439815 0.340278 Al
0.755556 0.773148 0.340278 Al
0.755556 0.106481 0.340278 Al
0.755556 0.439815 0.340278 Al
0.955556 0.773148 0.340278 Al
0.955556 0.106481 0.340278 Al
0.955556 0.439815 0.340278 Al
0.155556 0.773148 0.340278 Al
0.155556 0.106481 0.340278 Al
0.155556 0.439815 0.340278 Al
0.355556 0.773148 0.340278 Al
0.355556 0.106481 0.340278 Al
0.355556 0.439815 0.340278 Al
0.511111 0.921296 0.368056 Al
0.511111 0.254630 0.368056 Al
0.511111 0.587963 0.368056 Al
0.711111 0.921296 0.368056 Al
0.711111 0.254630 0.368056 Al
0.711111 0.587963 0.368056 Al
0.911111 0.921296 0.368056 Al
0.911111 0.254630 0.368056 Al
0.911111 0.587963 0.368056 Al
0.111111 0.921296 0.368056 Al
0.111111 0.254630 0.368056 Al
0.111111 0.587963 0.368056 Al
0.311111 0.921296 0.368056 Al
0.311111 0.254630 0.368056 Al
0.311111 0.587963 0.368056 Al
0.366667 0.736111 0.395833 Al
0.366667 0.069444 0.395833 Al
0.366667 0.402778 0.395833 Al
0.566667 0.736111 0.395833 Al
0.566667 0.069444 0.395833 Al
0.566667 0.402778 0.395833 Al
0.766667 0.736111 0.395833 Al
0.766667 0.069444 0.395833 Al
0.766667 0.402778 0.395833 Al
0.966667 0.736111 0.395833 Al
0.966667 0.069444 0.395833 Al
0.966667 0.402778 0.395833 Al
0.166667 0.736111 0.395833 Al
0.166667 0.069444 0.395833 Al
0.166667 0.402778 0.395833 Al
0.322222 0.884259 0.423611 Al
0.322222 0.217593 0.423611 Al
0.322222 0.550926 0.423611 Al
0.522222 0.884259 0.423611 Al
0.522222 0.217593 0.423611 Al
0.522222 0.550926 0.423611 Al
0.722222 0.884259 0.423611 Al
0.722222 0.217593 0.423611 Al
0.722222 0.550926 0.423611 Al
0.922222 0.884259 0.423611 Al
0.922222 0.217593 0.423611 Al
0.922222 0.550926 0.423611 Al
0.122222 0.884259 0.423611 Al
0.122222 0.217593 0.423611 Al
0.122222 0.550926 0.423611 Al
0.400000 0.791667 0.437500 Al
0.400000 0.125000 0.437500 Al
0.400000 0.458333 0.437500 Al
0.600000 0.791667 0.437500 Al
0.600000 0.125000 0.437500 Al
0.600000 0.458333 0.437500 Al
0.800000 0.791667 0.437500 Al
0.800000 0.125000 0.437500 Al
0.800000 0.458333 0.437500 Al
0.000000 0.791667 0.437500 Al
0.000000 0.125000 0.437500 Al
0.000000 0.458333 0.437500 Al
0.200000 0.791667 0.437500 Al
0.200000 0.125000 0.437500 Al
0.200000 0.458333 0.437500 Al
0.444444 0.976852 0.409722 Al
0.444444 0.310185 0.409722 Al
0.444444 0.643519 0.409722 Al
0.644444 0.976852 0.409722 Al
0.644444 0.310185 0.409722 Al
0.644444 0.643519 0.409722 Al
0.844444 0.976852 0.409722 Al
0.844444 0.310185 0.409722 Al
0.844444 0.643519 0.409722 Al
0.044444 0.976852 0.409722 Al
0.044444 0.310185 0.409722 Al
0.044444 0.643519 0.409722 Al
0.244444 0.976852 0.409722 Al
0.244444 0.310185 0.409722 Al
0.244444 0.643519 0.409722 Al
0.300000 0.791667 0.437500 Al
0.300000 0.125000 0.437500 Al
0.300000 0.458333 0.437500 Al
0.500000 0.791667 0.437500 Al
0.500000 0.125000 0.437500 Al
0.500000 0.458333 0.437500 Al
0.700000 0.791667 0.437500 Al
0.700000 0.125000 0.437500 Al
0.700000 0.458333 0.437500 Al
0.900000 0.791667 0.437500 Al
0.900000 0.125000 0.437500 Al
0.900000 0.458333 0.437500 Al
0.100000 0.791667 0.437500 Al
0.100000 0.125000 0.437500 Al
0.100000 0.458333 0.437500 Al
0.344444 0.976852 0.409722 Al
0.344444 0.310185 0.409722 Al
0.344444 0.643519 0.409722 Al
0.544444 0.976852 0.409722 Al
0.544444 0.310185 0.409722 Al
0.544444 0.643519 0.409722 Al
0.744444 0.976852 0.409722 Al
0.744444 0.310185 0.409722 Al
0.744444 0.643519 0.409722 Al
0.944444 0.976852 0.409722 Al
0.944444 0.310185 0.409722 Al
0.944444 0.643519 0.409722 Al
0.144444 0.976852 0.409722 Al
0.144444 0.310185 0.409722 Al
0.144444 0.643519 0.409722 Al
0.466667 0.736111 0.395833 Al
0.466667 0.069444 0.395833 Al
0.466667 0.402778 0.395833 Al
0.666667 0.736111 0.395833 Al
0.666667 0.069444 0.395833 Al
0.666667 0.402778 0.395833 Al
0.866667 0.736111 0.395833 Al
0.866667 0.069444 0.395833 Al
0.866667 0.402778 0.395833 Al
0.066667 0.736111 0.395833 Al
0.066667 0.069444 0.395833 Al
0.066667 0.402778 0.395833 Al
0.266667 0.736111 0.395833 Al
0.266667 0.069444 0.395833 Al
0.266667 0.402778 0.395833 Al
0.422222 0.884259 0.423611 Al
0.422222 0.217593 0.423611 Al
0.422222 0.550926 0.423611 Al
0.622222 0.884259 0.423611 Al
0.622222 0.217593 0.423611 Al
0.622222 0.550926 0.423611 Al
0.822222 0.884259 0.423611 Al
0.822222 0.217593 0.423611 Al
0.822222 0.550926 0.423611 Al
0.022222 0.884259 0.423611 Al
0.022222 0.217593 0.423611 Al
0.022222 0.550926 0.423611 Al
0.222222 0.884259 0.423611 Al
0.222222 0.217593 0.423611 Al
0.222222 0.550926 0.423611 Al
0.277778 0.699074 0.451389 Al
0.277778 0.032407 0.451389 Al
0.277778 0.365741 0.451389 Al
0.477778 0.699074 0.451389 Al
0.477778 0.032407 0.451389 Al
0.477778 0.365741 0.451389 Al
0.677778 0.699074 0.451389 Al
0.677778 0.032407 0.451389 Al
0.677778 0.365741 0.451389 Al
0.877778 0.699074 0.451389 Al
0.877778 0.032407 0.451389 Al
0.877778 0.365741 0.451389 Al
0.077778 0.699074 0.451389 Al
0.077778 0.032407 0.451389 Al
0.077778 0.365741 0.451389 Al
0.233333 0.847222 0.479167 Al
0.233333 0.180556 0.479167 Al
0.233333 0.513889 0.479167 Al
0.433333 0.847222 0.479167 Al
0.433333 0.180556 0.479167 Al
0.433333 0.513889 0.479167 Al
0.633333 0.847222 0.479167 Al
0.633333 0.180556 0.479167 Al
0.633333 0.513889 0.479167 Al
0.833333 0.847222 0.479167 Al
0.833333 0.180556 0.479167 Al
0.833333 0.513889 0.479167 Al
0.033333 0.847222 0.479167 Al
0.033333 0.180556 0.479167 Al
0.033333 0.513889 0.479167 Al
0.311111 0.754630 0.493056 Al
0.311111 0.087963 0.493056 Al
0.311111 0.421296 0.493056 Al
0.511111 0.754630 0.493056 Al
0.511111 0.087963 0.493056 Al
0.511111 0.421296 0.493056 Al
0.711111 0.754630 0.493056 Al
0.711111 0.087963 0.493056 Al
0.711111 0.421296 0.493056 Al
0.911111 0.754630 0.493056 Al
0.911111 0.087963 0.493056 Al
0.911111 0.421296 0.493056 Al
0.111111 0.754630 0.493056 Al
0.111111 0.087963 0.493056 Al
0.111111 0.421296 0.493056 Al
0.355556 0.939815 0.465278 Al
0.355556 0.273148 0.465278 Al
0.355556 0.606481 0.465278 Al
0.555556 0.939815 0.465278 Al
0.555556 0.273148 0.465278 Al
0.555556 0.606481 0.465278 Al
0.755556 0.939815 0.465278 Al
0.755556 0.273148 0.465278 Al
0.755556 0.606481 0.465278 Al
0.955556 0.939815 0.465278 Al
0.955556 0.273148 0.465278 Al
0.955556 0.606481 0.465278 Al
0.155556 0.939815 0.465278 Al
0.155556 0.273148 0.465278 Al
0.155556 0.606481 0.465278 Al
0.211111 0.754630 0.493056 Al
0.211111 0.087963 0.493056 Al
0.211111 0.421296 0.493056 Al
0.411111 0.754630 0.493056 Al
0.411111 0.087963 0.493056 Al
0.411111 0.421296 0.493056 Al
0.611111 0.754630 0.493056 Al
0.611111 0.087963 0.493056 Al
0.611111 0.421296 0.493056 Al
0.811111 0.754630 0.493056 Al
0.811111 0.087963 0.493056 Al
0.811111 0.421296 0.493056 Al
0.011111 0.754630 0.493056 Al
0.011111 0.087963 0.493056 Al
0.011111 0.421296 0.493056 Al
0.255556 0.939815 0.465278 Al
0.255556 0.273148 0.465278 Al
0.255556 0.606481 0.465278 Al
0.455556 0.939815 0.465278 Al
0.455556 0.273148 0.465278 Al
0.455556 0.606481 0.465278 Al
0.655556 0.939815 0.465278 Al
0.655556 0.273148 0.465278 Al
0.655556 0.606481 0.465278 Al
0.855556 0.939815 0.465278 Al
0.855556 0.273148 0.465278 Al
0.855556 0.606481 0.465278 Al
0.055556 0.939815 0.465278 Al
0.055556 0.273148 0.465278 Al
0.055556 0.606481 0.465278 Al
0.377778 0.699074 0.451389 Al
0.377778 0.032407 0.451389 Al
0.377778 0.365741 0.451389 Al
0.577778 0.699074 0.451389 Al
0.577778 0.032407 0.451389 Al
0.577778 0.365741 0.451389 Al
0.777778 0.699074 0.451389 Al
0.777778 0.032407 0.451389 Al
0.777778 0.365741 0.451389 Al
0.977778 0.699074 0.451389 Al
0.977778 0.032407 0.451389 Al
0.977778 0.365741 0.451389 Al
0.177778 0.699074 0.451389 Al
0.177778 0.032407 0.451389 Al
0.177778 0.365741 0.451389 Al
0.333333 0.847222 0.479167 Al
0.333333 0.180556 0.479167 Al
0.333333 0.513889 0.479167 Al
0.533333 0.847222 0.479167 Al
0.533333 0.180556 0.479167 Al
0.533333 0.513889 0.479167 Al
0.733333 0.847222 0.479167 Al
0.733333 0.180556 0.479167 Al
0.733333 0.513889 0.479167 Al
0.933333 0.847222 0.479167 Al
0.933333 0.180556 0.479167 Al
0.933333 0.513889 0.479167 Al
0.133333 0.847222 0.479167 Al
0.133333 0.180556 0.479167 Al
0.133333 0.513889 0.479167 Al
0.188889 0.662037 0.506944 Al
0.188889 0.995370 0.506944 Al
0.188889 0.328704 0.506944 Al
0.388889 0.662037 0.506944 Al
0.388889 0.995370 0.506944 Al
0.388889 0.328704 0.506944 Al
0.588889 0.662037 0.506944 Al
0.588889 0.995370 0.506944 Al
0.588889 0.328704 0.506944 Al
0.788889 0.662037 0.506944 Al
0.788889 0.995370 0.506944 Al
0.788889 0.328704 0.506944 Al
0.988889 0.662037 0.506944 Al
0.988889 0.995370 0.506944 Al
0.988889 0.328704 0.506944 Al
0.144444 0.810185 0.534722 Al
0.144444 0.143519 0.534722 Al
0.144444 0.476852 0.534722 Al
0.344444 0.810185 0.534722 Al
0.344444 0.143519 0.534722 Al
0.344444 0.476852 0.534722 Al
0.544444 0.810185 0.534722 Al
0.544444 0.143519 0.534722 Al
0.544444 0.476852 0.534722 Al
0.744444 0.810185 0.534722 Al
0.744444 0.143519 0.534722 Al
0.744444 0.476852 0.534722 Al
0.944444 0.810185 0.534722 Al
0.944444 0.143519 0.534722 Al
0.944444 0.476852 0.534722 Al
0.222222 0.717593 0.548611 Al
0.222222 0.050926 0.548611 Al
0.222222 0.384259 0.548611 Al
0.422222 0.717593 0.548611 Al
0.422222 0.050926 0.548611 Al
0.422222 0.384259 0.548611 Al
0.622222 0.717593 0.548611 Al
0.622222 0.050926 0.548611 Al
0.622222 0.384259 0.548611 Al
0.822222 0.717593 0.548611 Al
0.822222 0.050926 0.548611 Al
0.822222 0.384259 0.548611 Al
0.022222 0.717593 0.548611 Al
0.022222 0.050926 0.548611 Al
0.022222 0.384259 0.548611 Al
0.266667 0.902778 0.520833 Al
0.266667 0.236111 0.520833 Al
0.266667 0.569444 0.520833 Al
0.466667 0.902778 0.520833 Al
0.466667 0.236111 0.520833 Al
0.466667 0.569444 0.520833 Al
0.666667 0.902778 0.520833 Al
0.666667 0.236111 0.520833 Al
0.666667 0.569444 0.520833 Al
0.866667 0.902778 0.520833 Al
0.866667 0.236111 0.520833 Al
0.866667 0.569444 0.520833 Al
0.066667 0.902778 0.520833 Al
0.066667 0.236111 0.520833 Al
0.066667 0.569444 0.520833 Al
0.122222 0.717593 0.548611 Al
0.122222 0.050926 0.548611 Al
0.122222 0.384259 0.548611 Al
0.322222 0.717593 0.548611 Al
0.322222 0.050926 0.548611 Al
0.322222 0.384259 0.548611 Al
0.522222 0.717593 0.548611 Al
0.522222 0.050926 0.548611 Al
0.522222 0.384259 0.548611 Al
0.722222 0.717593 0.548611 Al
0.722222 0.050926 0.548611 Al
0.722222 0.384259 0.548611 Al
0.922222 0.717593 0.548611 Al
0.922222 0.050926 0.548611 Al
0.922222 0.384259 0.548611 Al
0.166667 0.902778 0.520833 Al
0.166667 0.236111 0.520833 Al
0.166667 0.569444 0.520833 Al
0.366667 0.902778 0.520833 Al
0.366667 0.236111 0.520833 Al
0.366667 0.569444 0.520833 Al
0.566667 0.902778 0.520833 Al
0.566667 0.236111 0.520833 Al
0.566667 0.569444 0.520833 Al
0.766667 0.902778 0.520833 Al
0.766667 0.236111 0.520833 Al
0.766667 0.569444 0.520833 Al
0.966667 0.902778 0.520833 Al
0.966667 0.236111 0.520833 Al
0.966667 0.569444 0.520833 Al
0.288889 0.662037 0.506944 Al
0.288889 0.995370 0.506944 Al
0.288889 0.328704 0.506944 Al
0.488889 0.662037 0.506944 Al
0.488889 0.995370 0.506944 Al
0.488889 0.328704 0.506944 Al
0.688889 0.662037 0.506944 Al
0.688889 0.995370 0.506944 Al
0.688889 0.328704 0.506944 Al
0.888889 0.662037 0.506944 Al
0.888889 0.995370 0.506944 Al
0.888889 0.328704 0.506944 Al
0.088889 0.662037 0.506944 Al
0.088889 0.995370 0.506944 Al
0.088889 0.328704 0.506944 Al
0.244444 0.810185 0.534722 Al
0.244444 0.143519 0.534722 Al
0.244444 0.476852 0.534722 Al
0.444444 0.810185 0.534722 Al
0.444444 0.143519 0.534722 Al
0.444444 0.476852 0.534722 Al
0.644444 0.810185 0.534722 Al
0.644444 0.143519 0.534722 Al
0.644444 0.476852 0.534722 Al
0.844444 0.810185 0.534722 Al
0.844444 0.143519 0.534722 Al
0.844444 0.476852 0.534722 Al
0.044444 0.810185 0.534722 Al
0.044444 0.143519 0.534722 Al
0.044444 0.476852 0.534722 Al
0.100000 0.625000 0.562500 Al
0.100000 0.958333 0.562500 Al
0.100000 0.291667 0.562500 Al
0.300000 0.625000 0.562500 Al
0.300000 0.958333 0.562500 Al
0.300000 0.291667 0.562500 Al
0.500000 0.625000 0.562500 Al
0.500000 0.958333 0.562500 Al
0.500000 0.291667 0.562500 Al
0.700000 0.625000 0.562500 Al
0.700000 0.958333 0.562500 Al
0.700000 0.291667 0.562500 Al
0.900000 0.625000 0.562500 Al
0.900000 0.958333 0.562500 Al
0.900000 0.291667 0.562500 Al
0.055556 0.773148 0.590278 Al
0.055556 0.106481 0.590278 Al
0.055556 0.439815 0.590278 Al
0.255556 0.773148 0.590278 Al
0.255556 0.106481 0.590278 Al
0.255556 0.439815 0.590278 Al
0.455556 0.773148 0.590278 Al
0.455556 0.106481 0.590278 Al
0.455556 0.439815 0.590278 Al
0.655556 0.773148 0.590278 Al
0.655556 0.106481 0.590278 Al
0.655556 0.439815 0.590278 Al
0.855556 0.773148 0.590278 Al
0.855556 0.106481 0.590278 Al
0.855556 0.439815 0.590278 Al
0.133333 0.680556 0.604167 Al
0.133333 0.013889 0.604167 Al
0.133333 0.347222 0.604167 Al
0.333333 0.680556 0.604167 Al
0.333333 0.013889 0.604167 Al
0.333333 0.347222 0.604167 Al
0.533333 0.680556 0.604167 Al
0.533333 0.013889 0.604167 Al
0.533333 0.347222 0.604167 Al
0.733333 0.680556 0.604167 Al
0.733333 0.013889 0.604167 Al
0.733333 0.347222 0.604167 Al
0.933333 0.680556 0.604167 Al
0.933333 0.013889 0.604167 Al
0.933333 0.347222 0.604167 Al
0.177778 0.865741 0.576389 Al
0.177778 0.199074 0.576389 Al
0.177778 0.532407 0.576389 Al
0.377778 0.865741 0.576389 Al
0.377778 0.199074 0.576389 Al
0.377778 0.532407 0.576389 Al
0.577778 0.865741 0.576389 Al
0.577778 0.199074 0.576389 Al
0.577778 0.532407 0.576389 Al
0.777778 0.865741 0.576389 Al
0.777778 0.199074 0.576389 Al
0.777778 0.532407 0.576389 Al
0.977778 0.865741 0.576389 Al
0.977778 0.199074 0.576389 Al
0.977778 0.532407 0.576389 Al
0.033333 0.680556 0.604167 Al
0.033333 0.013889 0.604167 Al
0.033333 0.347222 0.604167 Al
0.233333 0.680556 0.604167 Al
0.233333 0.013889 0.604167 Al
0.233333 0.347222 0.604167 Al
0.433333 0.680556 0.604167 Al
0.433333 0.013889 0.604167 Al
0.433333 0.347222 0.604167 Al
0.633333 0.680556 0.604167 Al
0.633333 0.013889 0.604167 Al
0.633333 0.347222 0.604167 Al
0.833333 0.680556 0.604167 Al
0.833333 0.013889 0.604167 Al
0.833333 0.347222 0.604167 Al
0.077778 0.865741 0.576389 Al
0.077778 0.199074 0.576389 Al
0.077778 0.532407 0.576389 Al
0.277778 0.865741 0.576389 Al
0.277778 0.199074 0.576389 Al
0.277778 0.532407 0.576389 Al
0.477778 0.865741 0.576389 Al
0.477778 0.199074 0.576389 Al
0.477778 0.532407 0.576389 Al
0.677778 0.865741 0.576389 Al
0.677778 0.199074 0.576389 Al
0.677778 0.532407 0.576389 Al
0.877778 0.865741 0.576389 Al
0.877778 0.199074 0.576389 Al
0.877778 0.532407 0.576389 Al
0.200000 0.625000 0.562500 Al
0.200000 0.958333 0.562500 Al
0.200000 0.291667 0.562500 Al
0.400000 0.625000 0.562500 Al
0.400000 0.958333 0.562500 Al
0.400000 0.291667 0.562500 Al
0.600000 0.625000 0.562500 Al
0.600000 0.958333 0.562500 Al
0.600000 0.291667 0.562500 Al
0.800000 0.625000 0.562500 Al
0.800000 0.958333 0.562500 Al
0.800000 0.291667 0.562500 Al
0.000000 0.625000 0.562500 Al
0.000000 0.958333 0.562500 Al
0.000000 0.291667 0.562500 Al
0.155556 0.773148 0.590278 Al
0.155556 0.106481 0.590278 Al
0.155556 0.439815 0.590278 Al
0.355556 0.773148 0.590278 Al
0.355556 0.106481 0.590278 Al
0.355556 0.439815 0.590278 Al
0.555556 0.773148 0.590278 Al
0.555556 0.106481 0.590278 Al
0.555556 0.439815 0.590278 Al
0.755556 0.773148 0.590278 Al
0.755556 0.106481 0.590278 Al
0.755556 0.439815 0.590278 Al
0.955556 0.773148 0.590278 Al
0.955556 0.106481 0.590278 Al
0.955556 0.439815 0.590278 Al
0.011111 0.587963 0.618056 Al
0.011111 0.921296 0.618056 Al
0.011111 0.254630 0.618056 Al
0.211111 0.587963 0.618056 Al
0.211111 0.921296 0.618056 Al
0.211111 0.254630 0.618056 Al
0.411111 0.587963 0.618056 Al
0.411111 0.921296 0.618056 Al
0.411111 0.254630 0.618056 Al
0.611111 0.587963 0.618056 Al
0.611111 0.921296 0.618056 Al
0.611111 0.254630 0.618056 Al
0.811111 0.587963 0.618056 Al
0.811111 0.921296 0.618056 Al
0.811111 0.254630 0.618056 Al
0.966667 0.736111 0.645833 Al
0.966667 0.069444 0.645833 Al
0.966667 0.402778 0.645833 Al
0.166667 0.736111 0.645833 Al
0.166667 0.069444 0.645833 Al
0.166667 0.402778 0.645833 Al
0.366667 0.736111 0.645833 Al
0.366667 0.069444 0.645833 Al
0.366667 0.402778 0.645833 Al
0.566667 0.736111 0.645833 Al
0.566667 0.069444 0.645833 Al
0.566667 0.402778 0.645833 Al
0.766667 0.736111 0.645833 Al
0.766667 0.069444 0.645833 Al
0.766667 0.402778 0.645833 Al
0.044444 0.643519 0.659722 Al
0.044444 0.976852 0.659722 Al
0.044444 0.310185 0.659722 Al
0.244444 0.643519 0.659722 Al
0.244444 0.976852 0.659722 Al
0.244444 0.310185 0.659722 Al
0.444444 0.643519 0.659722 Al
0.444444 0.976852 0.659722 Al
0.444444 0.310185 0.659722 Al
0.644444 0.643519 0.659722 Al
0.644444 0.976852 0.659722 Al
0.644444 0.310185 0.659722 Al
0.844444 0.643519 0.659722 Al
0.844444 0.976852 0.659722 Al
0.844444 0.310185 0.659722 Al
0.088889 0.828704 0.631944 Al
0.088889 0.162037 0.631944 Al
0.088889 0.495370 0.631944 Al
0.288889 0.828704 0.631944 Al
0.288889 0.162037 0.631944 Al
0.288889 0.495370 0.631944 Al
0.488889 0.828704 0.631944 Al
0.488889 0.162037 0.631944 Al
0.488889 0.495370 0.631944 Al
0.688889 0.828704 0.631944 Al
0.688889 0.162037 0.631944 Al
0.688889 0.495370 0.631944 Al
0.888889 0.828704 0.631944 Al
0.888889 0.162037 0.631944 Al
0.888889 0.495370 0.631944 Al
0.944444 0.643519 0.659722 Al
0.944444 0.976852 0.659722 Al
0.944444 0.310185 0.659722 Al
0.144444 0.643519 0.659722 Al
0.144444 0.976852 0.659722 Al
0.144444 0.310185 0.659722 Al
0.344444 0.643519 0.659722 Al
0.344444 0.976852 0.659722 Al
0.344444 0.310185 0.659722 Al
0.544444 0.643519 0.659722 Al
0.544444 0.976852 0.659722 Al
0.544444 0.310185 0.659722 Al
0.744444 0.643519 0.659722 Al
0.744444 0.976852 0.659722 Al
0.744444 0.310185 0.659722 Al
0.988889 0.828704 0.631944 Al
0.988889 0.162037 0.631944 Al
0.988889 0.495370 0.631944 Al
0.188889 0.828704 0.631944 Al
0.188889 0.162037 0.631944 Al
0.188889 0.495370 0.631944 Al
0.388889 0.828704 0.631944 Al
0.388889 0.162037 0.631944 Al
0.388889 0.495370 0.631944 Al
0.588889 0.828704 0.631944 Al
0.588889 0.162037 0.631944 Al
0.588889 0.495370 0.631944 Al
0.788889 0.828704 0.631944 Al
0.788889 0.162037 0.631944 Al
0.788889 0.495370 0.631944 Al
0.111111 0.587963 0.618056 Al
0.111111 0.921296 0.618056 Al
0.111111 0.254630 0.618056 Al
0.311111 0.587963 0.618056 Al
0.311111 0.921296 0.618056 Al
0.311111 0.254630 0.618056 Al
0.511111 0.587963 0.618056 Al
0.511111 0.921296 0.618056 Al
0.511111 0.254630 0.618056 Al
0.711111 0.587963 0.618056 Al
0.711111 0.921296 0.618056 Al
0.711111 0.254630 0.618056 Al
0.911111 0.587963 0.618056 Al
0.911111 0.921296 0.618056 Al
0.911111 0.254630 0.618056 Al
0.066667 0.736111 0.645833 Al
0.066667 0.069444 0.645833 Al
0.066667 0.402778 0.645833 Al
0.266667 0.736111 0.645833 Al
0.266667 0.069444 0.645833 Al
0.266667 0.402778 0.645833 Al
0.466667 0.736111 0.645833 Al
0.466667 0.069444 0.645833 Al
0.466667 0.402778 0.645833 Al
0.666667 0.736111 0.645833 Al
0.666667 0.069444 0.645833 Al
0.666667 0.402778 0.645833 Al
0.866667 0.736111 0.645833 Al
0.866667 0.069444 0.645833 Al
0.866667 0.402778 0.645833 Al
0.922222 0.550926 0.673611 Al
0.922222 0.884259 0.673611 Al
0.922222 0.217593 0.673611 Al
0.122222 0.550926 0.673611 Al
0.122222 0.884259 0.673611 Al
0.122222 0.217593 0.673611 Al
0.322222 0.550926 0.673611 Al
0.322222 0.884259 0.673611 Al
0.322222 0.217593 0.673611 Al
0.522222 0.550926 0.673611 Al
0.522222 0.884259 0.673611 Al
0.522222 0.217593 0.673611 Al
0.722222 0.550926 0.673611 Al
0.722222 0.884259 0.673611 Al
0.722222 0.217593 0.673611 Al
0.877778 0.699074 0.701389 Al
0.877778 0.032407 0.701389 Al
0.877778 0.365741 0.701389 Al
0.077778 0.699074 0.701389 Al
0.077778 0.032407 0.701389 Al
0.077778 0.365741 0.701389 Al
0.277778 0.699074 0.701389 Al
0.277778 0.032407 0.701389 Al
0.277778 0.365741 0.701389 Al
0.477778 0.699074 0.701389 Al
0.477778 0.032407 0.701389 Al
0.477778 0.365741 0.701389 Al
0.677778 0.699074 0.701389 Al
0.677778 0.032407 0.701389 Al
0.677778 0.365741 0.701389 Al
0.955556 0.606481 0.715278 Al
0.955556 0.939815 0.715278 Al
0.955556 0.273148 0.715278 Al
0.155556 0.606481 0.715278 Al
0.155556 0.939815 0.715278 Al
0.155556 0.273148 0.715278 Al
0.355556 0.606481 0.715278 Al
0.355556 0.939815 0.715278 Al
0.355556 0.273148 0.715278 Al
0.555556 0.606481 0.715278 Al
0.555556 0.939815 0.715278 Al
0.555556 0.273148 0.715278 Al
0.755556 0.606481 0.715278 Al
0.755556 0.939815 0.715278 Al
0.755556 0.273148 0.715278 Al
-0.000000 0.791667 0.687500 Al
0.000000 0.125000 0.687500 Al
0.000000 0.458333 0.687500 Al
0.200000 0.791667 0.687500 Al
0.200000 0.125000 0.687500 Al
0.200000 0.458333 0.687500 Al
0.400000 0.791667 0.687500 Al
0.400000 0.125000 0.687500 Al
0.400000 0.458333 0.687500 Al
0.600000 0.791667 0.687500 Al
0.600000 0.125000 0.687500 Al
0.600000 0.458333 0.687500 Al
0.800000 0.791667 0.687500 Al
0.800000 0.125000 0.687500 Al
0.800000 0.458333 0.687500 Al
0.855556 0.606481 0.715278 Al
0.855556 0.939815 0.715278 Al
0.855556 0.273148 0.715278 Al
0.055556 0.606481 0.715278 Al
0.055556 0.939815 0.715278 Al
0.055556 0.273148 0.715278 Al
0.255556 0.606481 0.715278 Al
0.255556 0.939815 0.715278 Al
0.255556 0.273148 0.715278 Al
0.455556 0.606481 0.715278 Al
0.455556 0.939815 0.715278 Al
0.455556 0.273148 0.715278 Al
0.655556 0.606481 0.715278 Al
0.655556 0.939815 0.715278 Al
0.655556 0.273148 0.715278 Al
0.900000 0.791667 0.687500 Al
0.900000 0.125000 0.687500 Al
0.900000 0.458333 0.687500 Al
0.100000 0.791667 0.687500 Al
0.100000 0.125000 0.687500 Al
0.100000 0.458333 0.687500 Al
0.300000 0.791667 0.687500 Al
0.300000 0.125000 0.687500 Al
0.300000 0.458333 0.687500 Al
0.500000 0.791667 0.687500 Al
0.500000 0.125000 0.687500 Al
0.500000 0.458333 0.687500 Al
0.700000 0.791667 0.687500 Al
0.700000 0.125000 0.687500 Al
0.700000 0.458333 0.687500 Al
0.022222 0.550926 0.673611 Al
0.022222 0.884259 0.673611 Al
0.022222 0.217593 0.673611 Al
0.222222 0.550926 0.673611 Al
0.222222 0.884259 0.673611 Al
0.222222 0.217593 0.673611 Al
0.422222 0.550926 0.673611 Al
0.422222 0.884259 0.673611 Al
0.422222 0.217593 0.673611 Al
0.622222 0.550926 0.673611 Al
0.622222 0.884259 0.673611 Al
0.622222 0.217593 0.673611 Al
0.822222 0.550926 0.673611 Al
0.822222 0.884259 0.673611 Al
0.822222 0.217593 0.673611 Al
0.977778 0.699074 0.701389 Al
0.977778 0.032407 0.701389 Al
0.977778 0.365741 0.701389 Al
0.177778 0.699074 0.701389 Al
0.177778 0.032407 0.701389 Al
0.177778 0.365741 0.701389 Al
0.377778 0.699074 0.701389 Al
0.377778 0.032407 0.701389 Al
0.377778 0.365741 0.701389 Al
0.577778 0.699074 0.701389 Al
0.577778 0.032407 0.701389 Al
0.577778 0.365741 0.701389 Al
0.777778 0.699074 0.701389 Al
0.777778 0.032407 0.701389 Al
0.777778 0.365741 0.701389 Al
