Surf-2_1_1@vac25@size20
1.0
-12.150000 24.300000 0.000000
-12.150000 0.000000 24.300000
40.500000 20.250000 20.250000
Al
1008
direct
0.937500 0.937500 0.275000 Al
0.937500 0.270833 0.275000 Al
0.937500 0.604167 0.275000 Al
0.270833 0.937500 0.275000 Al
0.270833 0.270833 0.275000 Al
0.270833 0.604167 0.275000 Al
0.604167 0.937500 0.275000 Al
0.604167 0.270833 0.275000 Al
0.604167 0.604167 0.275000 Al
0.770833 0.770833 0.275000 Al
0.770833 0.104167 0.275000 Al
0.770833 0.437500 0.275000 Al
0.104167 0.770833 0.275000 Al
0.104167 0.104167 0.275000 Al
0.104167 0.437500 0.275000 Al
0.437500 0.770833 0.275000 Al
0.437500 0.104167 0.275000 Al
0.437500 0.437500 0.275000 Al
0.743056 0.909722 0.308333 Al
0.743056 0.243056 0.308333 Al
0.743056 0.576389 0.308333 Al
0.076389 0.909722 0.308333 Al
0.076389 0.243056 0.308333 Al
0.076389 0.576389 0.308333 Al
0.409722 0.909722 0.308333 Al
0.409722 0.243056 0.308333 Al
0.409722 0.576389 0.308333 Al
0.909722 0.743056 0.308333 Al
0.909722 0.076389 0.308333 Al
0.909722 0.409722 0.308333 Al
0.243056 0.743056 0.308333 Al
0.243056 0.076389 0.308333 Al
0.243056 0.409722 0.308333 Al
0.576389 0.743056 0.308333 Al
0.576389 0.076389 0.308333 Al
0.576389 0.409722 0.308333 Al
0.993056 0.993056 0.308333 Al
0.993056 0.326389 0.308333 Al
0.993056 0.659722 0.308333 Al
0.326389 0.993056 0.308333 Al
0.326389 0.326389 0.308333 Al
0.326389 0.659722 0.308333 Al
0.659722 0.993056 0.308333 Al
0.659722 0.326389 0.308333 Al
0.659722 0.659722 0.308333 Al
0.826389 0.826389 0.308333 Al
0.826389 0.159722 0.308333 Al
0.826389 0.493056 0.308333 Al
0.159722 0.826389 0.308333 Al
0.159722 0.159722 0.308333 Al
0.159722 0.493056 0.308333 Al
0.493056 0.826389 0.308333 Al
0.493056 0.159722 0.308333 Al
0.493056 0.493056 0.308333 Al
0.854167 0.020833 0.275000 Al
0.854167 0.354167 0.275000 Al
0.854167 0.687500 0.275000 Al
0.187500 0.020833 0.275000 Al
0.187500 0.354167 0.275000 Al
0.187500 0.687500 0.275000 Al
0.520833 0.020833 0.275000 Al
0.520833 0.354167 0.275000 Al
0.520833 0.687500 0.275000 Al
0.020833 0.854167 0.275000 Al
0.020833 0.187500 0.275000 Al
0.020833 0.520833 0.275000 Al
0.354167 0.854167 0.275000 Al
0.354167 0.187500 0.275000 Al
0.354167 0.520833 0.275000 Al
0.687500 0.854167 0.275000 Al
0.687500 0.187500 0.275000 Al
0.687500 0.520833 0.275000 Al
0.895833 0.979167 0.325000 Al
0.895833 0.312500 0.325000 Al
0.895833 0.645833 0.325000 Al
0.229167 0.979167 0.325000 Al
0.229167 0.312500 0.325000 Al
0.229167 0.645833 0.325000 Al
0.562500 0.979167 0.325000 Al
0.562500 0.312500 0.325000 Al
0.562500 0.645833 0.325000 Al
0.729167 0.812500 0.325000 Al
0.729167 0.145833 0.325000 Al
0.729167 0.479167 0.325000 Al
0.062500 0.812500 0.325000 Al
0.062500 0.145833 0.325000 Al
0.062500 0.479167 0.325000 Al
0.395833 0.812500 0.325000 Al
0.395833 0.145833 0.325000 Al
0.395833 0.479167 0.325000 Al
0.756944 0.006944 0.291667 Al
0.756944 0.340278 0.291667 Al
0.756944 0.673611 0.291667 Al
0.090278 0.006944 0.291667 Al
0.090278 0.340278 0.291667 Al
0.090278 0.673611 0.291667 Al
0.423611 0.006944 0.291667 Al
0.423611 0.340278 0.291667 Al
0.423611 0.673611 0.291667 Al
0.923611 0.840278 0.291667 Al
0.923611 0.173611 0.291667 Al
0.923611 0.506944 0.291667 Al
0.256944 0.840278 0.291667 Al
0.256944 0.173611 0.291667 Al
0.256944 0.506944 0.291667 Al
0.590278 0.840278 0.291667 Al
0.590278 0.173611 0.291667 Al
0.590278 0.506944 0.291667 Al
0.979167 0.895833 0.325000 Al
0.979167 0.229167 0.325000 Al
0.979167 0.562500 0.325000 Al
0.312500 0.895833 0.325000 Al
0.312500 0.229167 0.325000 Al
0.312500 0.562500 0.325000 Al
0.645833 0.895833 0.325000 Al
0.645833 0.229167 0.325000 Al
0.645833 0.562500 0.325000 Al
0.812500 0.729167 0.325000 Al
0.812500 0.062500 0.325000 Al
0.812500 0.395833 0.325000 Al
0.145833 0.729167 0.325000 Al
0.145833 0.062500 0.325000 Al
0.145833 0.395833 0.325000 Al
0.479167 0.729167 0.325000 Al
0.479167 0.062500 0.325000 Al
0.479167 0.395833 0.325000 Al
0.840278 0.923611 0.291667 Al
0.840278 0.256944 0.291667 Al
0.840278 0.590278 0.291667 Al
0.173611 0.923611 0.291667 Al
0.173611 0.256944 0.291667 Al
0.173611 0.590278 0.291667 Al
0.506944 0.923611 0.291667 Al
0.506944 0.256944 0.291667 Al
0.506944 0.590278 0.291667 Al
0.006944 0.756944 0.291667 Al
0.006944 0.090278 0.291667 Al
0.006944 0.423611 0.291667 Al
0.340278 0.756944 0.291667 Al
0.340278 0.090278 0.291667 Al
0.340278 0.423611 0.291667 Al
0.673611 0.756944 0.291667 Al
0.673611 0.090278 0.291667 Al
0.673611 0.423611 0.291667 Al
0.881944 0.881944 0.341667 Al
0.881944 0.215278 0.341667 Al
0.881944 0.548611 0.341667 Al
0.215278 0.881944 0.341667 Al
0.215278 0.215278 0.341667 Al
0.215278 0.548611 0.341667 Al
0.548611 0.881944 0.341667 Al
0.548611 0.215278 0.341667 Al
0.548611 0.548611 0.341667 Al
0.715278 0.715278 0.341667 Al
0.715278 0.048611 0.341667 Al
0.715278 0.381944 0.341667 Al
0.048611 0.715278 0.341667 Al
0.048611 0.048611 0.341667 Al
0.048611 0.381944 0.341667 Al
0.381944 0.715278 0.341667 Al
0.381944 0.048611 0.341667 Al
0.381944 0.381944 0.341667 Al
0.687500 0.854167 0.375000 Al
0.687500 0.187500 0.375000 Al
0.687500 0.520833 0.375000 Al
0.020833 0.854167 0.375000 Al
0.020833 0.187500 0.375000 Al
0.020833 0.520833 0.375000 Al
0.354167 0.854167 0.375000 Al
0.354167 0.187500 0.375000 Al
0.354167 0.520833 0.375000 Al
0.854167 0.687500 0.375000 Al
0.854167 0.020833 0.375000 Al
0.854167 0.354167 0.375000 Al
0.187500 0.687500 0.375000 Al
0.187500 0.020833 0.375000 Al
0.187500 0.354167 0.375000 Al
0.520833 0.687500 0.375000 Al
0.520833 0.020833 0.375000 Al
0.520833 0.354167 0.375000 Al
0.937500 0.937500 0.375000 Al
0.937500 0.270833 0.375000 Al
0.937500 0.604167 0.375000 Al
0.270833 0.937500 0.375000 Al
0.270833 0.270833 0.375000 Al
0.270833 0.604167 0.375000 Al
0.604167 0.937500 0.375000 Al
0.604167 0.270833 0.375000 Al
0.604167 0.604167 0.375000 Al
0.770833 0.770833 0.375000 Al
0.770833 0.104167 0.375000 Al
0.770833 0.437500 0.375000 Al
0.104167 0.770833 0.375000 Al
0.104167 0.104167 0.375000 Al
0.104167 0.437500 0.375000 Al
0.437500 0.770833 0.375000 Al
0.437500 0.104167 0.375000 Al
0.437500 0.437500 0.375000 Al
0.798611 0.965278 0.341667 Al
0.798611 0.298611 0.341667 Al
0.798611 0.631944 0.341667 Al
0.131944 0.965278 0.341667 Al
0.131944 0.298611 0.341667 Al
0.131944 0.631944 0.341667 Al
0.465278 0.965278 0.341667 Al
0.465278 0.298611 0.341667 Al
0.465278 0.631944 0.341667 Al
0.965278 0.798611 0.341667 Al
0.965278 0.131944 0.341667 Al
0.965278 0.465278 0.341667 Al
0.298611 0.798611 0.341667 Al
0.298611 0.131944 0.341667 Al
0.298611 0.465278 0.341667 Al
0.631944 0.798611 0.341667 Al
0.631944 0.131944 0.341667 Al
0.631944 0.465278 0.341667 Al
0.840278 0.923611 0.391667 Al
0.840278 0.256944 0.391667 Al
0.840278 0.590278 0.391667 Al
0.173611 0.923611 0.391667 Al
0.173611 0.256944 0.391667 Al
0.173611 0.590278 0.391667 Al
0.506944 0.923611 0.391667 Al
0.506944 0.256944 0.391667 Al
0.506944 0.590278 0.391667 Al
0.673611 0.756944 0.391667 Al
0.673611 0.090278 0.391667 Al
0.673611 0.423611 0.391667 Al
0.006944 0.756944 0.391667 Al
0.006944 0.090278 0.391667 Al
0.006944 0.423611 0.391667 Al
0.340278 0.756944 0.391667 Al
0.340278 0.090278 0.391667 Al
0.340278 0.423611 0.391667 Al
0.701389 0.951389 0.358333 Al
0.701389 0.284722 0.358333 Al
0.701389 0.618056 0.358333 Al
0.034722 0.951389 0.358333 Al
0.034722 0.284722 0.358333 Al
0.034722 0.618056 0.358333 Al
0.368056 0.951389 0.358333 Al
0.368056 0.284722 0.358333 Al
0.368056 0.618056 0.358333 Al
0.868056 0.784722 0.358333 Al
0.868056 0.118056 0.358333 Al
0.868056 0.451389 0.358333 Al
0.201389 0.784722 0.358333 Al
0.201389 0.118056 0.358333 Al
0.201389 0.451389 0.358333 Al
0.534722 0.784722 0.358333 Al
0.534722 0.118056 0.358333 Al
0.534722 0.451389 0.358333 Al
0.923611 0.840278 0.391667 Al
0.923611 0.173611 0.391667 Al
0.923611 0.506944 0.391667 Al
0.256944 0.840278 0.391667 Al
0.256944 0.173611 0.391667 Al
0.256944 0.506944 0.391667 Al
0.590278 0.840278 0.391667 Al
0.590278 0.173611 0.391667 Al
0.590278 0.506944 0.391667 Al
0.756944 0.673611 0.391667 Al
0.756944 0.006944 0.391667 Al
0.756944 0.340278 0.391667 Al
0.090278 0.673611 0.391667 Al
0.090278 0.006944 0.391667 Al
0.090278 0.340278 0.391667 Al
0.423611 0.673611 0.391667 Al
0.423611 0.006944 0.391667 Al
0.423611 0.340278 0.391667 Al
0.784722 0.868056 0.358333 Al
0.784722 0.201389 0.358333 Al
0.784722 0.534722 0.358333 Al
0.118056 0.868056 0.358333 Al
0.118056 0.201389 0.358333 Al
0.118056 0.534722 0.358333 Al
0.451389 0.868056 0.358333 Al
0.451389 0.201389 0.358333 Al
0.451389 0.534722 0.358333 Al
0.951389 0.701389 0.358333 Al
0.951389 0.034722 0.358333 Al
0.951389 0.368056 0.358333 Al
0.284722 0.701389 0.358333 Al
0.284722 0.034722 0.358333 Al
0.284722 0.368056 0.358333 Al
0.618056 0.701389 0.358333 Al
0.618056 0.034722 0.358333 Al
0.618056 0.368056 0.358333 Al
0.826389 0.826389 0.408333 Al
0.826389 0.159722 0.408333 Al
0.826389 0.493056 0.408333 Al
0.159722 0.826389 0.408333 Al
0.159722 0.159722 0.408333 Al
0.159722 0.493056 0.408333 Al
0.493056 0.826389 0.408333 Al
0.493056 0.159722 0.408333 Al
0.493056 0.493056 0.408333 Al
0.659722 0.659722 0.408333 Al
0.659722 0.993056 0.408333 Al
0.659722 0.326389 0.408333 Al
0.993056 0.659722 0.408333 Al
0.993056 0.993056 0.408333 Al
0.993056 0.326389 0.408333 Al
0.326389 0.659722 0.408333 Al
0.326389 0.993056 0.408333 Al
0.326389 0.326389 0.408333 Al
0.631944 0.798611 0.441667 Al
0.631944 0.131944 0.441667 Al
0.631944 0.465278 0.441667 Al
0.965278 0.798611 0.441667 Al
0.965278 0.131944 0.441667 Al
0.965278 0.465278 0.441667 Al
0.298611 0.798611 0.441667 Al
0.298611 0.131944 0.441667 Al
0.298611 0.465278 0.441667 Al
0.798611 0.631944 0.441667 Al
0.798611 0.965278 0.441667 Al
0.798611 0.298611 0.441667 Al
0.131944 0.631944 0.441667 Al
0.131944 0.965278 0.441667 Al
0.131944 0.298611 0.441667 Al
0.465278 0.631944 0.441667 Al
0.465278 0.965278 0.441667 Al
0.465278 0.298611 0.441667 Al
0.881944 0.881944 0.441667 Al
0.881944 0.215278 0.441667 Al
0.881944 0.548611 0.441667 Al
0.215278 0.881944 0.441667 Al
0.215278 0.215278 0.441667 Al
0.215278 0.548611 0.441667 Al
0.548611 0.881944 0.441667 Al
0.548611 0.215278 0.441667 Al
0.548611 0.548611 0.441667 Al
0.715278 0.715278 0.441667 Al
0.715278 0.048611 0.441667 Al
0.715278 0.381944 0.441667 Al
0.048611 0.715278 0.441667 Al
0.048611 0.048611 0.441667 Al
0.048611 0.381944 0.441667 Al
0.381944 0.715278 0.441667 Al
0.381944 0.048611 0.441667 Al
0.381944 0.381944 0.441667 Al
0.743056 0.909722 0.408333 Al
0.743056 0.243056 0.408333 Al
0.743056 0.576389 0.408333 Al
0.076389 0.909722 0.408333 Al
0.076389 0.243056 0.408333 Al
0.076389 0.576389 0.408333 Al
0.409722 0.909722 0.408333 Al
0.409722 0.243056 0.408333 Al
0.409722 0.576389 0.408333 Al
0.909722 0.743056 0.408333 Al
0.909722 0.076389 0.408333 Al
0.909722 0.409722 0.408333 Al
0.243056 0.743056 0.408333 Al
0.243056 0.076389 0.408333 Al
0.243056 0.409722 0.408333 Al
0.576389 0.743056 0.408333 Al
0.576389 0.076389 0.408333 Al
0.576389 0.409722 0.408333 Al
0.784722 0.868056 0.458333 Al
0.784722 0.201389 0.458333 Al
0.784722 0.534722 0.458333 Al
0.118056 0.868056 0.458333 Al
0.118056 0.201389 0.458333 Al
0.118056 0.534722 0.458333 Al
0.451389 0.868056 0.458333 Al
0.451389 0.201389 0.458333 Al
0.451389 0.534722 0.458333 Al
0.618056 0.701389 0.458333 Al
0.618056 0.034722 0.458333 Al
0.618056 0.368056 0.458333 Al
0.951389 0.701389 0.458333 Al
0.951389 0.034722 0.458333 Al
0.951389 0.368056 0.458333 Al
0.284722 0.701389 0.458333 Al
0.284722 0.034722 0.458333 Al
0.284722 0.368056 0.458333 Al
0.645833 0.895833 0.425000 Al
0.645833 0.229167 0.425000 Al
0.645833 0.562500 0.425000 Al
0.979167 0.895833 0.425000 Al
0.979167 0.229167 0.425000 Al
0.979167 0.562500 0.425000 Al
0.312500 0.895833 0.425000 Al
0.312500 0.229167 0.425000 Al
0.312500 0.562500 0.425000 Al
0.812500 0.729167 0.425000 Al
0.812500 0.062500 0.425000 Al
0.812500 0.395833 0.425000 Al
0.145833 0.729167 0.425000 Al
0.145833 0.062500 0.425000 Al
0.145833 0.395833 0.425000 Al
0.479167 0.729167 0.425000 Al
0.479167 0.062500 0.425000 Al
0.479167 0.395833 0.425000 Al
0.868056 0.784722 0.458333 Al
0.868056 0.118056 0.458333 Al
0.868056 0.451389 0.458333 Al
0.201389 0.784722 0.458333 Al
0.201389 0.118056 0.458333 Al
0.201389 0.451389 0.458333 Al
0.534722 0.784722 0.458333 Al
0.534722 0.118056 0.458333 Al
0.534722 0.451389 0.458333 Al
0.701389 0.618056 0.458333 Al
0.701389 0.951389 0.458333 Al
0.701389 0.284722 0.458333 Al
0.034722 0.618056 0.458333 Al
0.034722 0.951389 0.458333 Al
0.034722 0.284722 0.458333 Al
0.368056 0.618056 0.458333 Al
0.368056 0.951389 0.458333 Al
0.368056 0.284722 0.458333 Al
0.729167 0.812500 0.425000 Al
0.729167 0.145833 0.425000 Al
0.729167 0.479167 0.425000 Al
0.062500 0.812500 0.425000 Al
0.062500 0.145833 0.425000 Al
0.062500 0.479167 0.425000 Al
0.395833 0.812500 0.425000 Al
0.395833 0.145833 0.425000 Al
0.395833 0.479167 0.425000 Al
0.895833 0.645833 0.425000 Al
0.895833 0.979167 0.425000 Al
0.895833 0.312500 0.425000 Al
0.229167 0.645833 0.425000 Al
0.229167 0.979167 0.425000 Al
0.229167 0.312500 0.425000 Al
0.562500 0.645833 0.425000 Al
0.562500 0.979167 0.425000 Al
0.562500 0.312500 0.425000 Al
0.770833 0.770833 0.475000 Al
0.770833 0.104167 0.475000 Al
0.770833 0.437500 0.475000 Al
0.104167 0.770833 0.475000 Al
0.104167 0.104167 0.475000 Al
0.104167 0.437500 0.475000 Al
0.437500 0.770833 0.475000 Al
0.437500 0.104167 0.475000 Al
0.437500 0.437500 0.475000 Al
0.604167 0.604167 0.475000 Al
0.604167 0.937500 0.475000 Al
0.604167 0.270833 0.475000 Al
0.937500 0.604167 0.475000 Al
0.937500 0.937500 0.475000 Al
0.937500 0.270833 0.475000 Al
0.270833 0.604167 0.475000 Al
0.270833 0.937500 0.475000 Al
0.270833 0.270833 0.475000 Al
0.576389 0.743056 0.508333 Al
0.576389 0.076389 0.508333 Al
0.576389 0.409722 0.508333 Al
0.909722 0.743056 0.508333 Al
0.909722 0.076389 0.508333 Al
0.909722 0.409722 0.508333 Al
0.243056 0.743056 0.508333 Al
0.243056 0.076389 0.508333 Al
0.243056 0.409722 0.508333 Al
0.743056 0.576389 0.508333 Al
0.743056 0.909722 0.508333 Al
0.743056 0.243056 0.508333 Al
0.076389 0.576389 0.508333 Al
0.076389 0.909722 0.508333 Al
0.076389 0.243056 0.508333 Al
0.409722 0.576389 0.508333 Al
0.409722 0.909722 0.508333 Al
0.409722 0.243056 0.508333 Al
0.826389 0.826389 0.508333 Al
0.826389 0.159722 0.508333 Al
0.826389 0.493056 0.508333 Al
0.159722 0.826389 0.508333 Al
0.159722 0.159722 0.508333 Al
0.159722 0.493056 0.508333 Al
0.493056 0.826389 0.508333 Al
0.493056 0.159722 0.508333 Al
0.493056 0.493056 0.508333 Al
0.659722 0.659722 0.508333 Al
0.659722 0.993056 0.508333 Al
0.659722 0.326389 0.508333 Al
0.993056 0.659722 0.508333 Al
0.993056 0.993056 0.508333 Al
0.993056 0.326389 0.508333 Al
0.326389 0.659722 0.508333 Al
0.326389 0.993056 0.508333 Al
0.326389 0.326389 0.508333 Al
0.687500 0.854167 0.475000 Al
0.687500 0.187500 0.475000 Al
0.687500 0.520833 0.475000 Al
0.020833 0.854167 0.475000 Al
0.020833 0.187500 0.475000 Al
0.020833 0.520833 0.475000 Al
0.354167 0.854167 0.475000 Al
0.354167 0.187500 0.475000 Al
0.354167 0.520833 0.475000 Al
0.854167 0.687500 0.475000 Al
0.854167 0.020833 0.475000 Al
0.854167 0.354167 0.475000 Al
0.187500 0.687500 0.475000 Al
0.187500 0.020833 0.475000 Al
0.187500 0.354167 0.475000 Al
0.520833 0.687500 0.475000 Al
0.520833 0.020833 0.475000 Al
0.520833 0.354167 0.475000 Al
0.729167 0.812500 0.525000 Al
0.729167 0.145833 0.525000 Al
0.729167 0.479167 0.525000 Al
0.062500 0.812500 0.525000 Al
0.062500 0.145833 0.525000 Al
0.062500 0.479167 0.525000 Al
0.395833 0.812500 0.525000 Al
0.395833 0.145833 0.525000 Al
0.395833 0.479167 0.525000 Al
0.562500 0.645833 0.525000 Al
0.562500 0.979167 0.525000 Al
0.562500 0.312500 0.525000 Al
0.895833 0.645833 0.525000 Al
0.895833 0.979167 0.525000 Al
0.895833 0.312500 0.525000 Al
0.229167 0.645833 0.525000 Al
0.229167 0.979167 0.525000 Al
0.229167 0.312500 0.525000 Al
0.590278 0.840278 0.491667 Al
0.590278 0.173611 0.491667 Al
0.590278 0.506944 0.491667 Al
0.923611 0.840278 0.491667 Al
0.923611 0.173611 0.491667 Al
0.923611 0.506944 0.491667 Al
0.256944 0.840278 0.491667 Al
0.256944 0.173611 0.491667 Al
0.256944 0.506944 0.491667 Al
0.756944 0.673611 0.491667 Al
0.756944 0.006944 0.491667 Al
0.756944 0.340278 0.491667 Al
0.090278 0.673611 0.491667 Al
0.090278 0.006944 0.491667 Al
0.090278 0.340278 0.491667 Al
0.423611 0.673611 0.491667 Al
0.423611 0.006944 0.491667 Al
0.423611 0.340278 0.491667 Al
0.812500 0.729167 0.525000 Al
0.812500 0.062500 0.525000 Al
0.812500 0.395833 0.525000 Al
0.145833 0.729167 0.525000 Al
0.145833 0.062500 0.525000 Al
0.145833 0.395833 0.525000 Al
0.479167 0.729167 0.525000 Al
0.479167 0.062500 0.525000 Al
0.479167 0.395833 0.525000 Al
0.645833 0.562500 0.525000 Al
0.645833 0.895833 0.525000 Al
0.645833 0.229167 0.525000 Al
0.979167 0.562500 0.525000 Al
0.979167 0.895833 0.525000 Al
0.979167 0.229167 0.525000 Al
0.312500 0.562500 0.525000 Al
0.312500 0.895833 0.525000 Al
0.312500 0.229167 0.525000 Al
0.673611 0.756944 0.491667 Al
0.673611 0.090278 0.491667 Al
0.673611 0.423611 0.491667 Al
0.006944 0.756944 0.491667 Al
0.006944 0.090278 0.491667 Al
0.006944 0.423611 0.491667 Al
0.340278 0.756944 0.491667 Al
0.340278 0.090278 0.491667 Al
0.340278 0.423611 0.491667 Al
0.840278 0.590278 0.491667 Al
0.840278 0.923611 0.491667 Al
0.840278 0.256944 0.491667 Al
0.173611 0.590278 0.491667 Al
0.173611 0.923611 0.491667 Al
0.173611 0.256944 0.491667 Al
0.506944 0.590278 0.491667 Al
0.506944 0.923611 0.491667 Al
0.506944 0.256944 0.491667 Al
0.715278 0.715278 0.541667 Al
0.715278 0.048611 0.541667 Al
0.715278 0.381944 0.541667 Al
0.048611 0.715278 0.541667 Al
0.048611 0.048611 0.541667 Al
0.048611 0.381944 0.541667 Al
0.381944 0.715278 0.541667 Al
0.381944 0.048611 0.541667 Al
0.381944 0.381944 0.541667 Al
0.548611 0.548611 0.541667 Al
0.548611 0.881944 0.541667 Al
0.548611 0.215278 0.541667 Al
0.881944 0.548611 0.541667 Al
0.881944 0.881944 0.541667 Al
0.881944 0.215278 0.541667 Al
0.215278 0.548611 0.541667 Al
0.215278 0.881944 0.541667 Al
0.215278 0.215278 0.541667 Al
0.520833 0.687500 0.575000 Al
0.520833 0.020833 0.575000 Al
0.520833 0.354167 0.575000 Al
0.854167 0.687500 0.575000 Al
0.854167 0.020833 0.575000 Al
0.854167 0.354167 0.575000 Al
0.187500 0.687500 0.575000 Al
0.187500 0.020833 0.575000 Al
0.187500 0.354167 0.575000 Al
0.687500 0.520833 0.575000 Al
0.687500 0.854167 0.575000 Al
0.687500 0.187500 0.575000 Al
0.020833 0.520833 0.575000 Al
0.020833 0.854167 0.575000 Al
0.020833 0.187500 0.575000 Al
0.354167 0.520833 0.575000 Al
0.354167 0.854167 0.575000 Al
0.354167 0.187500 0.575000 Al
0.770833 0.770833 0.575000 Al
0.770833 0.104167 0.575000 Al
0.770833 0.437500 0.575000 Al
0.104167 0.770833 0.575000 Al
0.104167 0.104167 0.575000 Al
0.104167 0.437500 0.575000 Al
0.437500 0.770833 0.575000 Al
0.437500 0.104167 0.575000 Al
0.437500 0.437500 0.575000 Al
0.604167 0.604167 0.575000 Al
0.604167 0.937500 0.575000 Al
0.604167 0.270833 0.575000 Al
0.937500 0.604167 0.575000 Al
0.937500 0.937500 0.575000 Al
0.937500 0.270833 0.575000 Al
0.270833 0.604167 0.575000 Al
0.270833 0.937500 0.575000 Al
0.270833 0.270833 0.575000 Al
0.631944 0.798611 0.541667 Al
0.631944 0.131944 0.541667 Al
0.631944 0.465278 0.541667 Al
0.965278 0.798611 0.541667 Al
0.965278 0.131944 0.541667 Al
0.965278 0.465278 0.541667 Al
0.298611 0.798611 0.541667 Al
0.298611 0.131944 0.541667 Al
0.298611 0.465278 0.541667 Al
0.798611 0.631944 0.541667 Al
0.798611 0.965278 0.541667 Al
0.798611 0.298611 0.541667 Al
0.131944 0.631944 0.541667 Al
0.131944 0.965278 0.541667 Al
0.131944 0.298611 0.541667 Al
0.465278 0.631944 0.541667 Al
0.465278 0.965278 0.541667 Al
0.465278 0.298611 0.541667 Al
0.673611 0.756944 0.591667 Al
0.673611 0.090278 0.591667 Al
0.673611 0.423611 0.591667 Al
0.006944 0.756944 0.591667 Al
0.006944 0.090278 0.591667 Al
0.006944 0.423611 0.591667 Al
0.340278 0.756944 0.591667 Al
0.340278 0.090278 0.591667 Al
0.340278 0.423611 0.591667 Al
0.506944 0.590278 0.591667 Al
0.506944 0.923611 0.591667 Al
0.506944 0.256944 0.591667 Al
0.840278 0.590278 0.591667 Al
0.840278 0.923611 0.591667 Al
0.840278 0.256944 0.591667 Al
0.173611 0.590278 0.591667 Al
0.173611 0.923611 0.591667 Al
0.173611 0.256944 0.591667 Al
0.534722 0.784722 0.558333 Al
0.534722 0.118056 0.558333 Al
0.534722 0.451389 0.558333 Al
0.868056 0.784722 0.558333 Al
0.868056 0.118056 0.558333 Al
0.868056 0.451389 0.558333 Al
0.201389 0.784722 0.558333 Al
0.201389 0.118056 0.558333 Al
0.201389 0.451389 0.558333 Al
0.701389 0.618056 0.558333 Al
0.701389 0.951389 0.558333 Al
0.701389 0.284722 0.558333 Al
0.034722 0.618056 0.558333 Al
0.034722 0.951389 0.558333 Al
0.034722 0.284722 0.558333 Al
0.368056 0.618056 0.558333 Al
0.368056 0.951389 0.558333 Al
0.368056 0.284722 0.558333 Al
0.756944 0.673611 0.591667 Al
0.756944 0.006944 0.591667 Al
0.756944 0.340278 0.591667 Al
0.090278 0.673611 0.591667 Al
0.090278 0.006944 0.591667 Al
0.090278 0.340278 0.591667 Al
0.423611 0.673611 0.591667 Al
0.423611 0.006944 0.591667 Al
0.423611 0.340278 0.591667 Al
0.590278 0.506944 0.591667 Al
0.590278 0.840278 0.591667 Al
0.590278 0.173611 0.591667 Al
0.923611 0.506944 0.591667 Al
0.923611 0.840278 0.591667 Al
0.923611 0.173611 0.591667 Al
0.256944 0.506944 0.591667 Al
0.256944 0.840278 0.591667 Al
0.256944 0.173611 0.591667 Al
0.618056 0.701389 0.558333 Al
0.618056 0.034722 0.558333 Al
0.618056 0.368056 0.558333 Al
0.951389 0.701389 0.558333 Al
0.951389 0.034722 0.558333 Al
0.951389 0.368056 0.558333 Al
0.284722 0.701389 0.558333 Al
0.284722 0.034722 0.558333 Al
0.284722 0.368056 0.558333 Al
0.784722 0.534722 0.558333 Al
0.784722 0.868056 0.558333 Al
0.784722 0.201389 0.558333 Al
0.118056 0.534722 0.558333 Al
0.118056 0.868056 0.558333 Al
0.118056 0.201389 0.558333 Al
0.451389 0.534722 0.558333 Al
0.451389 0.868056 0.558333 Al
0.451389 0.201389 0.558333 Al
0.659722 0.659722 0.608333 Al
0.659722 0.993056 0.608333 Al
0.659722 0.326389 0.608333 Al
0.993056 0.659722 0.608333 Al
0.993056 0.993056 0.608333 Al
0.993056 0.326389 0.608333 Al
0.326389 0.659722 0.608333 Al
0.326389 0.993056 0.608333 Al
0.326389 0.326389 0.608333 Al
0.493056 0.493056 0.608333 Al
0.493056 0.826389 0.608333 Al
0.493056 0.159722 0.608333 Al
0.826389 0.493056 0.608333 Al
0.826389 0.826389 0.608333 Al
0.826389 0.159722 0.608333 Al
0.159722 0.493056 0.608333 Al
0.159722 0.826389 0.608333 Al
0.159722 0.159722 0.608333 Al
0.465278 0.631944 0.641667 Al
0.465278 0.965278 0.641667 Al
0.465278 0.298611 0.641667 Al
0.798611 0.631944 0.641667 Al
0.798611 0.965278 0.641667 Al
0.798611 0.298611 0.641667 Al
0.131944 0.631944 0.641667 Al
0.131944 0.965278 0.641667 Al
0.131944 0.298611 0.641667 Al
0.631944 0.465278 0.641667 Al
0.631944 0.798611 0.641667 Al
0.631944 0.131944 0.641667 Al
0.965278 0.465278 0.641667 Al
0.965278 0.798611 0.641667 Al
0.965278 0.131944 0.641667 Al
0.298611 0.465278 0.641667 Al
0.298611 0.798611 0.641667 Al
0.298611 0.131944 0.641667 Al
0.715278 0.715278 0.641667 Al
0.715278 0.048611 0.641667 Al
0.715278 0.381944 0.641667 Al
0.048611 0.715278 0.641667 Al
0.048611 0.048611 0.641667 Al
0.048611 0.381944 0.641667 Al
0.381944 0.715278 0.641667 Al
0.381944 0.048611 0.641667 Al
0.381944 0.381944 0.641667 Al
0.548611 0.548611 0.641667 Al
0.548611 0.881944 0.641667 Al
0.548611 0.215278 0.641667 Al
0.881944 0.548611 0.641667 Al
0.881944 0.881944 0.641667 Al
0.881944 0.215278 0.641667 Al
0.215278 0.548611 0.641667 Al
0.215278 0.881944 0.641667 Al
0.215278 0.215278 0.641667 Al
0.576389 0.743056 0.608333 Al
0.576389 0.076389 0.608333 Al
0.576389 0.409722 0.608333 Al
0.909722 0.743056 0.608333 Al
0.909722 0.076389 0.608333 Al
0.909722 0.409722 0.608333 Al
0.243056 0.743056 0.608333 Al
0.243056 0.076389 0.608333 Al
0.243056 0.409722 0.608333 Al
0.743056 0.576389 0.608333 Al
0.743056 0.909722 0.608333 Al
0.743056 0.243056 0.608333 Al
0.076389 0.576389 0.608333 Al
0.076389 0.909722 0.608333 Al
0.076389 0.243056 0.608333 Al
0.409722 0.576389 0.608333 Al
0.409722 0.909722 0.608333 Al
0.409722 0.243056 0.608333 Al
0.618056 0.701389 0.658333 Al
0.618056 0.034722 0.658333 Al
0.618056 0.368056 0.658333 Al
0.951389 0.701389 0.658333 Al
0.951389 0.034722 0.658333 Al
0.951389 0.368056 0.658333 Al
0.284722 0.701389 0.658333 Al
0.284722 0.034722 0.658333 Al
0.284722 0.368056 0.658333 Al
0.451389 0.534722 0.658333 Al
0.451389 0.868056 0.658333 Al
0.451389 0.201389 0.658333 Al
0.784722 0.534722 0.658333 Al
0.784722 0.868056 0.658333 Al
0.784722 0.201389 0.658333 Al
0.118056 0.534722 0.658333 Al
0.118056 0.868056 0.658333 Al
0.118056 0.201389 0.658333 Al
0.479167 0.729167 0.625000 Al
0.479167 0.062500 0.625000 Al
0.479167 0.395833 0.625000 Al
0.812500 0.729167 0.625000 Al
0.812500 0.062500 0.625000 Al
0.812500 0.395833 0.625000 Al
0.145833 0.729167 0.625000 Al
0.145833 0.062500 0.625000 Al
0.145833 0.395833 0.625000 Al
0.645833 0.562500 0.625000 Al
0.645833 0.895833 0.625000 Al
0.645833 0.229167 0.625000 Al
0.979167 0.562500 0.625000 Al
0.979167 0.895833 0.625000 Al
0.979167 0.229167 0.625000 Al
0.312500 0.562500 0.625000 Al
0.312500 0.895833 0.625000 Al
0.312500 0.229167 0.625000 Al
0.701389 0.618056 0.658333 Al
0.701389 0.951389 0.658333 Al
0.701389 0.284722 0.658333 Al
0.034722 0.618056 0.658333 Al
0.034722 0.951389 0.658333 Al
0.034722 0.284722 0.658333 Al
0.368056 0.618056 0.658333 Al
0.368056 0.951389 0.658333 Al
0.368056 0.284722 0.658333 Al
0.534722 0.451389 0.658333 Al
0.534722 0.784722 0.658333 Al
0.534722 0.118056 0.658333 Al
0.868056 0.451389 0.658333 Al
0.868056 0.784722 0.658333 Al
0.868056 0.118056 0.658333 Al
0.201389 0.451389 0.658333 Al
0.201389 0.784722 0.658333 Al
0.201389 0.118056 0.658333 Al
0.562500 0.645833 0.625000 Al
0.562500 0.979167 0.625000 Al
0.562500 0.312500 0.625000 Al
0.895833 0.645833 0.625000 Al
0.895833 0.979167 0.625000 Al
0.895833 0.312500 0.625000 Al
0.229167 0.645833 0.625000 Al
0.229167 0.979167 0.625000 Al
0.229167 0.312500 0.625000 Al
0.729167 0.479167 0.625000 Al
0.729167 0.812500 0.625000 Al
0.729167 0.145833 0.625000 Al
0.062500 0.479167 0.625000 Al
0.062500 0.812500 0.625000 Al
0.062500 0.145833 0.625000 Al
0.395833 0.479167 0.625000 Al
0.395833 0.812500 0.625000 Al
0.395833 0.145833 0.625000 Al
0.604167 0.604167 0.675000 Al
0.604167 0.937500 0.675000 Al
0.604167 0.270833 0.675000 Al
0.937500 0.604167 0.675000 Al
0.937500 0.937500 0.675000 Al
0.937500 0.270833 0.675000 Al
0.270833 0.604167 0.675000 Al
0.270833 0.937500 0.675000 Al
0.270833 0.270833 0.675000 Al
0.437500 0.437500 0.675000 Al
0.437500 0.770833 0.675000 Al
0.437500 0.104167 0.675000 Al
0.770833 0.437500 0.675000 Al
0.770833 0.770833 0.675000 Al
0.770833 0.104167 0.675000 Al
0.104167 0.437500 0.675000 Al
0.104167 0.770833 0.675000 Al
0.104167 0.104167 0.675000 Al
0.409722 0.576389 0.708333 Al
0.409722 0.909722 0.708333 Al
0.409722 0.243056 0.708333 Al
0.743056 0.576389 0.708333 Al
0.743056 0.909722 0.708333 Al
0.743056 0.243056 0.708333 Al
0.076389 0.576389 0.708333 Al
0.076389 0.909722 0.708333 Al
0.076389 0.243056 0.708333 Al
0.576389 0.409722 0.708333 Al
0.576389 0.743056 0.708333 Al
0.576389 0.076389 0.708333 Al
0.909722 0.409722 0.708333 Al
0.909722 0.743056 0.708333 Al
0.909722 0.076389 0.708333 Al
0.243056 0.409722 0.708333 Al
0.243056 0.743056 0.708333 Al
0.243056 0.076389 0.708333 Al
0.659722 0.659722 0.708333 Al
0.659722 0.993056 0.708333 Al
0.659722 0.326389 0.708333 Al
0.993056 0.659722 0.708333 Al
0.993056 0.993056 0.708333 Al
0.993056 0.326389 0.708333 Al
0.326389 0.659722 0.708333 Al
0.326389 0.993056 0.708333 Al
0.326389 0.326389 0.708333 Al
0.493056 0.493056 0.708333 Al
0.493056 0.826389 0.708333 Al
0.493056 0.159722 0.708333 Al
0.826389 0.493056 0.708333 Al
0.826389 0.826389 0.708333 Al
0.826389 0.159722 0.708333 Al
0.159722 0.493056 0.708333 Al
0.159722 0.826389 0.708333 Al
0.159722 0.159722 0.708333 Al
0.520833 0.687500 0.675000 Al
0.520833 0.020833 0.675000 Al
0.520833 0.354167 0.675000 Al
0.854167 0.687500 0.675000 Al
0.854167 0.020833 0.675000 Al
0.854167 0.354167 0.675000 Al
0.187500 0.687500 0.675000 Al
0.187500 0.020833 0.675000 Al
0.187500 0.354167 0.675000 Al
0.687500 0.520833 0.675000 Al
0.687500 0.854167 0.675000 Al
0.687500 0.187500 0.675000 Al
0.020833 0.520833 0.675000 Al
0.020833 0.854167 0.675000 Al
0.020833 0.187500 0.675000 Al
0.354167 0.520833 0.675000 Al
0.354167 0.854167 0.675000 Al
0.354167 0.187500 0.675000 Al
0.562500 0.645833 0.725000 Al
0.562500 0.979167 0.725000 Al
0.562500 0.312500 0.725000 Al
0.895833 0.645833 0.725000 Al
0.895833 0.979167 0.725000 Al
0.895833 0.312500 0.725000 Al
0.229167 0.645833 0.725000 Al
0.229167 0.979167 0.725000 Al
0.229167 0.312500 0.725000 Al
0.395833 0.479167 0.725000 Al
0.395833 0.812500 0.725000 Al
0.395833 0.145833 0.725000 Al
0.729167 0.479167 0.725000 Al
0.729167 0.812500 0.725000 Al
0.729167 0.145833 0.725000 Al
0.062500 0.479167 0.725000 Al
0.062500 0.812500 0.725000 Al
0.062500 0.145833 0.725000 Al
0.423611 0.673611 0.691667 Al
0.423611 0.006944 0.691667 Al
0.423611 0.340278 0.691667 Al
0.756944 0.673611 0.691667 Al
0.756944 0.006944 0.691667 Al
0.756944 0.340278 0.691667 Al
0.090278 0.673611 0.691667 Al
0.090278 0.006944 0.691667 Al
0.090278 0.340278 0.691667 Al
0.590278 0.506944 0.691667 Al
0.590278 0.840278 0.691667 Al
0.590278 0.173611 0.691667 Al
0.923611 0.506944 0.691667 Al
0.923611 0.840278 0.691667 Al
0.923611 0.173611 0.691667 Al
0.256944 0.506944 0.691667 Al
0.256944 0.840278 0.691667 Al
0.256944 0.173611 0.691667 Al
0.645833 0.562500 0.725000 Al
0.645833 0.895833 0.725000 Al
0.645833 0.229167 0.725000 Al
0.979167 0.562500 0.725000 Al
0.979167 0.895833 0.725000 Al
0.979167 0.229167 0.725000 Al
0.312500 0.562500 0.725000 Al
0.312500 0.895833 0.725000 Al
0.312500 0.229167 0.725000 Al
0.479167 0.395833 0.725000 Al
0.479167 0.729167 0.725000 Al
0.479167 0.062500 0.725000 Al
0.812500 0.395833 0.725000 Al
0.812500 0.729167 0.725000 Al
0.812500 0.062500 0.725000 Al
0.145833 0.395833 0.725000 Al
0.145833 0.729167 0.725000 Al
0.145833 0.062500 0.725000 Al
0.506944 0.590278 0.691667 Al
0.506944 0.923611 0.691667 Al
0.506944 0.256944 0.691667 Al
0.840278 0.590278 0.691667 Al
0.840278 0.923611 0.691667 Al