Surf-1_0_0@vac25@size20
1.0
0.000000 20.250000 0.000000
0.000000 0.000000 20.250000
48.600000 -0.000000 0.000000
Al
500
direct
0.000000 0.000000 0.312500 Al
0.000000 0.200000 0.312500 Al
0.000000 0.400000 0.312500 Al
0.000000 0.600000 0.312500 Al
0.000000 0.800000 0.312500 Al
0.200000 0.000000 0.312500 Al
0.200000 0.200000 0.312500 Al
0.200000 0.400000 0.312500 Al
0.200000 0.600000 0.312500 Al
0.200000 0.800000 0.312500 Al
0.400000 0.000000 0.312500 Al
0.400000 0.200000 0.312500 Al
0.400000 0.400000 0.312500 Al
0.400000 0.600000 0.312500 Al
0.400000 0.800000 0.312500 Al
0.600000 0.000000 0.312500 Al
0.600000 0.200000 0.312500 Al
0.600000 0.400000 0.312500 Al
0.600000 0.600000 0.312500 Al
0.600000 0.800000 0.312500 Al
0.800000 0.000000 0.312500 Al
0.800000 0.200000 0.312500 Al
0.800000 0.400000 0.312500 Al
0.800000 0.600000 0.312500 Al
0.800000 0.800000 0.312500 Al
0.100000 0.100000 0.312500 Al
0.100000 0.300000 0.312500 Al
0.100000 0.500000 0.312500 Al
0.100000 0.700000 0.312500 Al
0.100000 0.900000 0.312500 Al
0.300000 0.100000 0.312500 Al
0.300000 0.300000 0.312500 Al
0.300000 0.500000 0.312500 Al
0.300000 0.700000 0.312500 Al
0.300000 0.900000 0.312500 Al
0.500000 0.100000 0.312500 Al
0.500000 0.300000 0.312500 Al
0.500000 0.500000 0.312500 Al
0.500000 0.700000 0.312500 Al
0.500000 0.900000 0.312500 Al
0.700000 0.100000 0.312500 Al
0.700000 0.300000 0.312500 Al
0.700000 0.500000 0.312500 Al
0.700000 0.700000 0.312500 Al
0.700000 0.900000 0.312500 Al
0.900000 0.100000 0.312500 Al
0.900000 0.300000 0.312500 Al
0.900000 0.500000 0.312500 Al
0.900000 0.700000 0.312500 Al
0.900000 0.900000 0.312500 Al
0.000000 0.100000 0.354167 Al
0.000000 0.300000 0.354167 Al
0.000000 0.500000 0.354167 Al
0.000000 0.700000 0.354167 Al
0.000000 0.900000 0.354167 Al
0.200000 0.100000 0.354167 Al
0.200000 0.300000 0.354167 Al
0.200000 0.500000 0.354167 Al
0.200000 0.700000 0.354167 Al
0.200000 0.900000 0.354167 Al
0.400000 0.100000 0.354167 Al
0.400000 0.300000 0.354167 Al
0.400000 0.500000 0.354167 Al
0.400000 0.700000 0.354167 Al
0.400000 0.900000 0.354167 Al
0.600000 0.100000 0.354167 Al
0.600000 0.300000 0.354167 Al
0.600000 0.500000 0.354167 Al
0.600000 0.700000 0.354167 Al
0.600000 0.900000 0.354167 Al
0.800000 0.100000 0.354167 Al
0.800000 0.300000 0.354167 Al
0.800000 0.500000 0.354167 Al
0.800000 0.700000 0.354167 Al
0.800000 0.900000 0.354167 Al
0.100000 0.000000 0.354167 Al
0.100000 0.200000 0.354167 Al
0.100000 0.400000 0.354167 Al
0.100000 0.600000 0.354167 Al
0.100000 0.800000 0.354167 Al
0.300000 0.000000 0.354167 Al
0.300000 0.200000 0.354167 Al
0.300000 0.400000 0.354167 Al
0.300000 0.600000 0.354167 Al
0.300000 0.800000 0.354167 Al
0.500000 0.000000 0.354167 Al
0.500000 0.200000 0.354167 Al
0.500000 0.400000 0.354167 Al
0.500000 0.600000 0.354167 Al
0.500000 0.800000 0.354167 Al
0.700000 0.000000 0.354167 Al
0.700000 0.200000 0.354167 Al
0.700000 0.400000 0.354167 Al
0.700000 0.600000 0.354167 Al
0.700000 0.800000 0.354167 Al
0.900000 0.000000 0.354167 Al
0.900000 0.200000 0.354167 Al
0.900000 0.400000 0.354167 Al
0.900000 0.600000 0.354167 Al
0.900000 0.800000 0.354167 Al
0.000000 0.000000 0.395833 Al
0.000000 0.200000 0.395833 Al
0.000000 0.400000 0.395833 Al
0.000000 0.600000 0.395833 Al
0.000000 0.800000 0.395833 Al
0.200000 0.000000 0.395833 Al
0.200000 0.200000 0.395833 Al
0.200000 0.400000 0.395833 Al
0.200000 0.600000 0.395833 Al
0.200000 0.800000 0.395833 Al
0.400000 0.000000 0.395833 Al
0.400000 0.200000 0.395833 Al
0.400000 0.400000 0.395833 Al
0.400000 0.600000 0.395833 Al
0.400000 0.800000 0.395833 Al
0.600000 0.000000 0.395833 Al
0.600000 0.200000 0.395833 Al
0.600000 0.400000 0.395833 Al
0.600000 0.600000 0.395833 Al
0.600000 0.800000 0.395833 Al
0.800000 0.000000 0.395833 Al
0.800000 0.200000 0.395833 Al
0.800000 0.400000 0.395833 Al
0.800000 0.600000 0.395833 Al
0.800000 0.800000 0.395833 Al
0.100000 0.100000 0.395833 Al
0.100000 0.300000 0.395833 Al
0.100000 0.500000 0.395833 Al
0.100000 0.700000 0.395833 Al
0.100000 0.900000 0.395833 Al
0.300000 0.100000 0.395833 Al
0.300000 0.300000 0.395833 Al
0.300000 0.500000 0.395833 Al
0.300000 0.700000 0.395833 Al
0.300000 0.900000 0.395833 Al
0.500000 0.100000 0.395833 Al
0.500000 0.300000 0.395833 Al
0.500000 0.500000 0.395833 Al
0.500000 0.700000 0.395833 Al
0.500000 0.900000 0.395833 Al
0.700000 0.100000 0.395833 Al
0.700000 0.300000 0.395833 Al
0.700000 0.500000 0.395833 Al
0.700000 0.700000 0.395833 Al
0.700000 0.900000 0.395833 Al
0.900000 0.100000 0.395833 Al
0.900000 0.300000 0.395833 Al
0.900000 0.500000 0.395833 Al
0.900000 0.700000 0.395833 Al
0.900000 0.900000 0.395833 Al
0.000000 0.100000 0.437500 Al
0.000000 0.300000 0.437500 Al
0.000000 0.500000 0.437500 Al
0.000000 0.700000 0.437500 Al
0.000000 0.900000 0.437500 Al
0.200000 0.100000 0.437500 Al
0.200000 0.300000 0.437500 Al
0.200000 0.500000 0.437500 Al
0.200000 0.700000 0.437500 Al
0.200000 0.900000 0.437500 Al
0.400000 0.100000 0.437500 Al
0.400000 0.300000 0.437500 Al
0.400000 0.500000 0.437500 Al
0.400000 0.700000 0.437500 Al
0.400000 0.900000 0.437500 Al
0.600000 0.100000 0.437500 Al
0.600000 0.300000 0.437500 Al
0.600000 0.500000 0.437500 Al
0.600000 0.700000 0.437500 Al
0.600000 0.900000 0.437500 Al
0.800000 0.100000 0.437500 Al
0.800000 0.300000 0.437500 Al
0.800000 0.500000 0.437500 Al
0.800000 0.700000 0.437500 Al
0.800000 0.900000 0.437500 Al
0.100000 0.000000 0.437500 Al
0.100000 0.200000 0.437500 Al
0.100000 0.400000 0.437500 Al
0.100000 0.600000 0.437500 Al
0.100000 0.800000 0.437500 Al
0.300000 0.000000 0.437500 Al
0.300000 0.200000 0.437500 Al
0.300000 0.400000 0.437500 Al
0.300000 0.600000 0.437500 Al
0.300000 0.800000 0.437500 Al
0.500000 0.000000 0.437500 Al
0.500000 0.200000 0.437500 Al
0.500000 0.400000 0.437500 Al
0.500000 0.600000 0.437500 Al
0.500000 0.800000 0.437500 Al
0.700000 0.000000 0.437500 Al
0.700000 0.200000 0.437500 Al
0.700000 0.400000 0.437500 Al
0.700000 0.600000 0.437500 Al
0.700000 0.800000 0.437500 Al
0.900000 0.000000 0.437500 Al
0.900000 0.200000 0.437500 Al
0.900000 0.400000 0.437500 Al
0.900000 0.600000 0.437500 Al
0.900000 0.800000 0.437500 Al
0.000000 0.000000 0.479167 Al
0.000000 0.200000 0.479167 Al
0.000000 0.400000 0.479167 Al
0.000000 0.600000 0.479167 Al
0.000000 0.800000 0.479167 Al
0.200000 0.000000 0.479167 Al
0.200000 0.200000 0.479167 Al
0.200000 0.400000 0.479167 Al
0.200000 0.600000 0.479167 Al
0.200000 0.800000 0.479167 Al
0.400000 0.000000 0.479167 Al
0.400000 0.200000 0.479167 Al
0.400000 0.400000 0.479167 Al
0.400000 0.600000 0.479167 Al
0.400000 0.800000 0.479167 Al
0.600000 0.000000 0.479167 Al
0.600000 0.200000 0.479167 Al
0.600000 0.400000 0.479167 Al
0.600000 0.600000 0.479167 Al
0.600000 0.800000 0.479167 Al
0.800000 0.000000 0.479167 Al
0.800000 0.200000 0.479167 Al
0.800000 0.400000 0.479167 Al
0.800000 0.600000 0.479167 Al
0.800000 0.800000 0.479167 Al
0.100000 0.100000 0.479167 Al
0.100000 0.300000 0.479167 Al
0.100000 0.500000 0.479167 Al
0.100000 0.700000 0.479167 Al
0.100000 0.900000 0.479167 Al
0.300000 0.100000 0.479167 Al
0.300000 0.300000 0.479167 Al
0.300000 0.500000 0.479167 Al
0.300000 0.700000 0.479167 Al
0.300000 0.900000 0.479167 Al
0.500000 0.100000 0.479167 Al
0.500000 0.300000 0.479167 Al
0.500000 0.500000 0.479167 Al
0.500000 0.700000 0.479167 Al
0.500000 0.900000 0.479167 Al
0.700000 0.100000 0.479167 Al
0.700000 0.300000 0.479167 Al
0.700000 0.500000 0.479167 Al
0.700000 0.700000 0.479167 Al
0.700000 0.900000 0.479167 Al
0.900000 0.100000 0.479167 Al
0.900000 0.300000 0.479167 Al
0.900000 0.500000 0.479167 Al
0.900000 0.700000 0.479167 Al
0.900000 0.900000 0.479167 Al
0.000000 0.100000 0.520833 Al
0.000000 0.300000 0.520833 Al
0.000000 0.500000 0.520833 Al
0.000000 0.700000 0.520833 Al
0.000000 0.900000 0.520833 Al
0.200000 0.100000 0.520833 Al
0.200000 0.300000 0.520833 Al
0.200000 0.500000 0.520833 Al
0.200000 0.700000 0.520833 Al
0.200000 0.900000 0.520833 Al
0.400000 0.100000 0.520833 Al
0.400000 0.300000 0.520833 Al
0.400000 0.500000 0.520833 Al
0.400000 0.700000 0.520833 Al
0.400000 0.900000 0.520833 Al
0.600000 0.100000 0.520833 Al
0.600000 0.300000 0.520833 Al
0.600000 0.500000 0.520833 Al
0.600000 0.700000 0.520833 Al
0.600000 0.900000 0.520833 Al
0.800000 0.100000 0.520833 Al
0.800000 0.300000 0.520833 Al
0.800000 0.500000 0.520833 Al
0.800000 0.700000 0.520833 Al
0.800000 0.900000 0.520833 Al
0.100000 0.000000 0.520833 Al
0.100000 0.200000 0.520833 Al
0.100000 0.400000 0.520833 Al
0.100000 0.600000 0.520833 Al
0.100000 0.800000 0.520833 Al
0.300000 0.000000 0.520833 Al
0.300000 0.200000 0.520833 Al
0.300000 0.400000 0.520833 Al
0.300000 0.600000 0.520833 Al
0.300000 0.800000 0.520833 Al
0.500000 0.000000 0.520833 Al
0.500000 0.200000 0.520833 Al
0.500000 0.400000 0.520833 Al
0.500000 0.600000 0.520833 Al
0.500000 0.800000 0.520833 Al
0.700000 0.000000 0.520833 Al
0.700000 0.200000 0.520833 Al
0.700000 0.400000 0.520833 Al
0.700000 0.600000 0.520833 Al
0.700000 0.800000 0.520833 Al
0.900000 0.000000 0.520833 Al
0.900000 0.200000 0.520833 Al
0.900000 0.400000 0.520833 Al
0.900000 0.600000 0.520833 Al
0.900000 0.800000 0.520833 Al
0.000000 0.000000 0.562500 Al
0.000000 0.200000 0.562500 Al
0.000000 0.400000 0.562500 Al
0.000000 0.600000 0.562500 Al
0.000000 0.800000 0.562500 Al
0.200000 0.000000 0.562500 Al
0.200000 0.200000 0.562500 Al
0.200000 0.400000 0.562500 Al
0.200000 0.600000 0.562500 Al
0.200000 0.800000 0.562500 Al
0.400000 0.000000 0.562500 Al
0.400000 0.200000 0.562500 Al
0.400000 0.400000 0.562500 Al
0.400000 0.600000 0.562500 Al
0.400000 0.800000 0.562500 Al
0.600000 0.000000 0.562500 Al
0.600000 0.200000 0.562500 Al
0.600000 0.400000 0.562500 Al
0.600000 0.600000 0.562500 Al
0.600000 0.800000 0.562500 Al
0.800000 0.000000 0.562500 Al
0.800000 0.200000 0.562500 Al
0.800000 0.400000 0.562500 Al
0.800000 0.600000 0.562500 Al
0.800000 0.800000 0.562500 Al
0.100000 0.100000 0.562500 Al
0.100000 0.300000 0.562500 Al
0.100000 0.500000 0.562500 Al
0.100000 0.700000 0.562500 Al
0.100000 0.900000 0.562500 Al
0.300000 0.100000 0.562500 Al
0.300000 0.300000 0.562500 Al
0.300000 0.500000 0.562500 Al
0.300000 0.700000 0.562500 Al
0.300000 0.900000 0.562500 Al
0.500000 0.100000 0.562500 Al
0.500000 0.300000 0.562500 Al
0.500000 0.500000 0.562500 Al
0.500000 0.700000 0.562500 Al
0.500000 0.900000 0.562500 Al
0.700000 0.100000 0.562500 Al
0.700000 0.300000 0.562500 Al
0.700000 0.500000 0.562500 Al
0.700000 0.700000 0.562500 Al
0.700000 0.900000 0.562500 Al
0.900000 0.100000 0.562500 Al
0.900000 0.300000 0.562500 Al
0.900000 0.500000 0.562500 Al
0.900000 0.700000 0.562500 Al
0.900000 0.900000 0.562500 Al
0.000000 0.100000 0.604167 Al
0.000000 0.300000 0.604167 Al
0.000000 0.500000 0.604167 Al
0.000000 0.700000 0.604167 Al
0.000000 0.900000 0.604167 Al
0.200000 0.100000 0.604167 Al
0.200000 0.300000 0.604167 Al
0.200000 0.500000 0.604167 Al
0.200000 0.700000 0.604167 Al
0.200000 0.900000 0.604167 Al
0.400000 0.100000 0.604167 Al
0.400000 0.300000 0.604167 Al
0.400000 0.500000 0.604167 Al
0.400000 0.700000 0.604167 Al
0.400000 0.900000 0.604167 Al
0.600000 0.100000 0.604167 Al
0.600000 0.300000 0.604167 Al
0.600000 0.500000 0.604167 Al
0.600000 0.700000 0.604167 Al
0.600000 0.900000 0.604167 Al
0.800000 0.100000 0.604167 Al
0.800000 0.300000 0.604167 Al
0.800000 0.500000 0.604167 Al
0.800000 0.700000 0.604167 Al
0.800000 0.900000 0.604167 Al
0.100000 0.000000 0.604167 Al
0.100000 0.200000 0.604167 Al
0.100000 0.400000 0.604167 Al
0.100000 0.600000 0.604167 Al
0.100000 0.800000 0.604167 Al
0.300000 0.000000 0.604167 Al
0.300000 0.200000 0.604167 Al
0.300000 0.400000 0.604167 Al
0.300000 0.600000 0.604167 Al
0.300000 0.800000 0.604167 Al
0.500000 0.000000 0.604167 Al
0.500000 0.200000 0.604167 Al
0.500000 0.400000 0.604167 Al
0.500000 0.600000 0.604167 Al
0.500000 0.800000 0.604167 Al
0.700000 0.000000 0.604167 Al
0.700000 0.200000 0.604167 Al
0.700000 0.400000 0.604167 Al
0.700000 0.600000 0.604167 Al
0.700000 0.800000 0.604167 Al
0.900000 0.000000 0.604167 Al
0.900000 0.200000 0.604167 Al
0.900000 0.400000 0.604167 Al
0.900000 0.600000 0.604167 Al
0.900000 0.800000 0.604167 Al
0.000000 0.000000 0.645833 Al
0.000000 0.200000 0.645833 Al
0.000000 0.400000 0.645833 Al
0.000000 0.600000 0.645833 Al
0.000000 0.800000 0.645833 Al
0.200000 0.000000 0.645833 Al
0.200000 0.200000 0.645833 Al
0.200000 0.400000 0.645833 Al
0.200000 0.600000 0.645833 Al
0.200000 0.800000 0.645833 Al
0.400000 0.000000 0.645833 Al
0.400000 0.200000 0.645833 Al
0.400000 0.400000 0.645833 Al
0.400000 0.600000 0.645833 Al
0.400000 0.800000 0.645833 Al
0.600000 0.000000 0.645833 Al
0.600000 0.200000 0.645833 Al
0.600000 0.400000 0.645833 Al
0.600000 0.600000 0.645833 Al
0.600000 0.800000 0.645833 Al
0.800000 0.000000 0.645833 Al
0.800000 0.200000 0.645833 Al
0.800000 0.400000 0.645833 Al
0.800000 0.600000 0.645833 Al
0.800000 0.800000 0.645833 Al
0.100000 0.100000 0.645833 Al
0.100000 0.300000 0.645833 Al
0.100000 0.500000 0.645833 Al
0.100000 0.700000 0.645833 Al
0.100000 0.900000 0.645833 Al
0.300000 0.100000 0.645833 Al
0.300000 0.300000 0.645833 Al
0.300000 0.500000 0.645833 Al
0.300000 0.700000 0.645833 Al
0.300000 0.900000 0.645833 Al
0.500000 0.100000 0.645833 Al
0.500000 0.300000 0.645833 Al
0.500000 0.500000 0.645833 Al
0.500000 0.700000 0.645833 Al
0.500000 0.900000 0.645833 Al
0.700000 0.100000 0.645833 Al
0.700000 0.300000 0.645833 Al
0.700000 0.500000 0.645833 Al
0.700000 0.700000 0.645833 Al
0.700000 0.900000 0.645833 Al
0.900000 0.100000 0.645833 Al
0.900000 0.300000 0.645833 Al
0.900000 0.500000 0.645833 Al
0.900000 0.700000 0.645833 Al
0.900000 0.900000 0.645833 Al
0.000000 0.100000 0.687500 Al
0.000000 0.300000 0.687500 Al
0.000000 0.500000 0.687500 Al
0.000000 0.700000 0.687500 Al
0.000000 0.900000 0.687500 Al
0.200000 0.100000 0.687500 Al
0.200000 0.300000 0.687500 Al
0.200000 0.500000 0.687500 Al
0.200000 0.700000 0.687500 Al
0.200000 0.900000 0.687500 Al
0.400000 0.100000 0.687500 Al
0.400000 0.300000 0.687500 Al
0.400000 0.500000 0.687500 Al
0.400000 0.700000 0.687500 Al
0.400000 0.900000 0.687500 Al
0.600000 0.100000 0.687500 Al
0.600000 0.300000 0.687500 Al
0.600000 0.500000 0.687500 Al
0.600000 0.700000 0.687500 Al
0.600000 0.900000 0.687500 Al
0.800000 0.100000 0.687500 Al
0.800000 0.300000 0.687500 Al
0.800000 0.500000 0.687500 Al
0.800000 0.700000 0.687500 Al
0.800000 0.900000 0.687500 Al
0.100000 0.000000 0.687500 Al
0.100000 0.200000 0.687500 Al
0.100000 0.400000 0.687500 Al
0.100000 0.600000 0.687500 Al
0.100000 0.800000 0.687500 Al
0.300000 0.000000 0.687500 Al
0.300000 0.200000 0.687500 Al
0.300000 0.400000 0.687500 Al
0.300000 0.600000 0.687500 Al
0.300000 0.800000 0.687500 Al
0.500000 0.000000 0.687500 Al
0.500000 0.200000 0.687500 Al
0.500000 0.400000 0.687500 Al
0.500000 0.600000 0.687500 Al
0.500000 0.800000 0.687500 Al
0.700000 0.000000 0.687500 Al
0.700000 0.200000 0.687500 Al
0.700000 0.400000 0.687500 Al
0.700000 0.600000 0.687500 Al
0.700000 0.800000 0.687500 Al
0.900000 0.000000 0.687500 Al
0.900000 0.200000 0.687500 Al
0.900000 0.400000 0.687500 Al
0.900000 0.600000 0.687500 Al
0.900000 0.800000 0.687500 Al
