bulk@mp-998860
1.0
1.610250 1.610250 1.610250
1.610250 -1.610250 -1.610250
-1.610250 1.610250 -1.610250
Al
1
direct
0.000000 -0.000000 0.000000 Al
