Surf-3_1_0@vac25@size20
1.0
0.000000 0.000000 -20.250000
8.100000 -24.300000 -0.000000
-47.385000 -15.795000 0.000000
Al
720
direct
0.000000 0.125000 0.320513 Al
0.000000 0.625000 0.320513 Al
0.200000 0.125000 0.320513 Al
0.200000 0.625000 0.320513 Al
0.400000 0.125000 0.320513 Al
0.400000 0.625000 0.320513 Al
0.600000 0.125000 0.320513 Al
0.600000 0.625000 0.320513 Al
0.800000 0.125000 0.320513 Al
0.800000 0.625000 0.320513 Al
0.000000 0.975000 0.294872 Al
0.000000 0.475000 0.294872 Al
0.200000 0.975000 0.294872 Al
0.200000 0.475000 0.294872 Al
0.400000 0.975000 0.294872 Al
0.400000 0.475000 0.294872 Al
0.600000 0.975000 0.294872 Al
0.600000 0.475000 0.294872 Al
0.800000 0.975000 0.294872 Al
0.800000 0.475000 0.294872 Al
0.000000 0.825000 0.269231 Al
0.000000 0.325000 0.269231 Al
0.200000 0.825000 0.269231 Al
0.200000 0.325000 0.269231 Al
0.400000 0.825000 0.269231 Al
0.400000 0.325000 0.269231 Al
0.600000 0.825000 0.269231 Al
0.600000 0.325000 0.269231 Al
0.800000 0.825000 0.269231 Al
0.800000 0.325000 0.269231 Al
0.100000 0.050000 0.307692 Al
0.100000 0.550000 0.307692 Al
0.300000 0.050000 0.307692 Al
0.300000 0.550000 0.307692 Al
0.500000 0.050000 0.307692 Al
0.500000 0.550000 0.307692 Al
0.700000 0.050000 0.307692 Al
0.700000 0.550000 0.307692 Al
0.900000 0.050000 0.307692 Al
0.900000 0.550000 0.307692 Al
0.100000 0.900000 0.282051 Al
0.100000 0.400000 0.282051 Al
0.300000 0.900000 0.282051 Al
0.300000 0.400000 0.282051 Al
0.500000 0.900000 0.282051 Al
0.500000 0.400000 0.282051 Al
0.700000 0.900000 0.282051 Al
0.700000 0.400000 0.282051 Al
0.900000 0.900000 0.282051 Al
0.900000 0.400000 0.282051 Al
0.100000 0.200000 0.333333 Al
0.100000 0.700000 0.333333 Al
0.300000 0.200000 0.333333 Al
0.300000 0.700000 0.333333 Al
0.500000 0.200000 0.333333 Al
0.500000 0.700000 0.333333 Al
0.700000 0.200000 0.333333 Al
0.700000 0.700000 0.333333 Al
0.900000 0.200000 0.333333 Al
0.900000 0.700000 0.333333 Al
0.100000 0.150000 0.282051 Al
0.100000 0.650000 0.282051 Al
0.300000 0.150000 0.282051 Al
0.300000 0.650000 0.282051 Al
0.500000 0.150000 0.282051 Al
0.500000 0.650000 0.282051 Al
0.700000 0.150000 0.282051 Al
0.700000 0.650000 0.282051 Al
0.900000 0.150000 0.282051 Al
0.900000 0.650000 0.282051 Al
0.100000 0.950000 0.333333 Al
0.100000 0.450000 0.333333 Al
0.300000 0.950000 0.333333 Al
0.300000 0.450000 0.333333 Al
0.500000 0.950000 0.333333 Al
0.500000 0.450000 0.333333 Al
0.700000 0.950000 0.333333 Al
0.700000 0.450000 0.333333 Al
0.900000 0.950000 0.333333 Al
0.900000 0.450000 0.333333 Al
0.100000 0.800000 0.307692 Al
0.100000 0.300000 0.307692 Al
0.300000 0.800000 0.307692 Al
0.300000 0.300000 0.307692 Al
0.500000 0.800000 0.307692 Al
0.500000 0.300000 0.307692 Al
0.700000 0.800000 0.307692 Al
0.700000 0.300000 0.307692 Al
0.900000 0.800000 0.307692 Al
0.900000 0.300000 0.307692 Al
0.000000 0.025000 0.346154 Al
0.000000 0.525000 0.346154 Al
0.200000 0.025000 0.346154 Al
0.200000 0.525000 0.346154 Al
0.400000 0.025000 0.346154 Al
0.400000 0.525000 0.346154 Al
0.600000 0.025000 0.346154 Al
0.600000 0.525000 0.346154 Al
0.800000 0.025000 0.346154 Al
0.800000 0.525000 0.346154 Al
0.000000 0.875000 0.320513 Al
0.000000 0.375000 0.320513 Al
0.200000 0.875000 0.320513 Al
0.200000 0.375000 0.320513 Al
0.400000 0.875000 0.320513 Al
0.400000 0.375000 0.320513 Al
0.600000 0.875000 0.320513 Al
0.600000 0.375000 0.320513 Al
0.800000 0.875000 0.320513 Al
0.800000 0.375000 0.320513 Al
0.000000 0.225000 0.294872 Al
0.000000 0.725000 0.294872 Al
0.200000 0.225000 0.294872 Al
0.200000 0.725000 0.294872 Al
0.400000 0.225000 0.294872 Al
0.400000 0.725000 0.294872 Al
0.600000 0.225000 0.294872 Al
0.600000 0.725000 0.294872 Al
0.800000 0.225000 0.294872 Al
0.800000 0.725000 0.294872 Al
0.000000 0.075000 0.397436 Al
0.000000 0.575000 0.397436 Al
0.200000 0.075000 0.397436 Al
0.200000 0.575000 0.397436 Al
0.400000 0.075000 0.397436 Al
0.400000 0.575000 0.397436 Al
0.600000 0.075000 0.397436 Al
0.600000 0.575000 0.397436 Al
0.800000 0.075000 0.397436 Al
0.800000 0.575000 0.397436 Al
0.000000 0.925000 0.371795 Al
0.000000 0.425000 0.371795 Al
0.200000 0.925000 0.371795 Al
0.200000 0.425000 0.371795 Al
0.400000 0.925000 0.371795 Al
0.400000 0.425000 0.371795 Al
0.600000 0.925000 0.371795 Al
0.600000 0.425000 0.371795 Al
0.800000 0.925000 0.371795 Al
0.800000 0.425000 0.371795 Al
0.000000 0.775000 0.346154 Al
0.000000 0.275000 0.346154 Al
0.200000 0.775000 0.346154 Al
0.200000 0.275000 0.346154 Al
0.400000 0.775000 0.346154 Al
0.400000 0.275000 0.346154 Al
0.600000 0.775000 0.346154 Al
0.600000 0.275000 0.346154 Al
0.800000 0.775000 0.346154 Al
0.800000 0.275000 0.346154 Al
0.100000 0.000000 0.384615 Al
0.100000 0.500000 0.384615 Al
0.300000 0.000000 0.384615 Al
0.300000 0.500000 0.384615 Al
0.500000 0.000000 0.384615 Al
0.500000 0.500000 0.384615 Al
0.700000 0.000000 0.384615 Al
0.700000 0.500000 0.384615 Al
0.900000 0.000000 0.384615 Al
0.900000 0.500000 0.384615 Al
0.100000 0.850000 0.358974 Al
0.100000 0.350000 0.358974 Al
0.300000 0.850000 0.358974 Al
0.300000 0.350000 0.358974 Al
0.500000 0.850000 0.358974 Al
0.500000 0.350000 0.358974 Al
0.700000 0.850000 0.358974 Al
0.700000 0.350000 0.358974 Al
0.900000 0.850000 0.358974 Al
0.900000 0.350000 0.358974 Al
0.100000 0.150000 0.410256 Al
0.100000 0.650000 0.410256 Al
0.300000 0.150000 0.410256 Al
0.300000 0.650000 0.410256 Al
0.500000 0.150000 0.410256 Al
0.500000 0.650000 0.410256 Al
0.700000 0.150000 0.410256 Al
0.700000 0.650000 0.410256 Al
0.900000 0.150000 0.410256 Al
0.900000 0.650000 0.410256 Al
0.100000 0.100000 0.358974 Al
0.100000 0.600000 0.358974 Al
0.300000 0.100000 0.358974 Al
0.300000 0.600000 0.358974 Al
0.500000 0.100000 0.358974 Al
0.500000 0.600000 0.358974 Al
0.700000 0.100000 0.358974 Al
0.700000 0.600000 0.358974 Al
0.900000 0.100000 0.358974 Al
0.900000 0.600000 0.358974 Al
0.100000 0.900000 0.410256 Al
0.100000 0.400000 0.410256 Al
0.300000 0.900000 0.410256 Al
0.300000 0.400000 0.410256 Al
0.500000 0.900000 0.410256 Al
0.500000 0.400000 0.410256 Al
0.700000 0.900000 0.410256 Al
0.700000 0.400000 0.410256 Al
0.900000 0.900000 0.410256 Al
0.900000 0.400000 0.410256 Al
0.100000 0.750000 0.384615 Al
0.100000 0.250000 0.384615 Al
0.300000 0.750000 0.384615 Al
0.300000 0.250000 0.384615 Al
0.500000 0.750000 0.384615 Al
0.500000 0.250000 0.384615 Al
0.700000 0.750000 0.384615 Al
0.700000 0.250000 0.384615 Al
0.900000 0.750000 0.384615 Al
0.900000 0.250000 0.384615 Al
0.000000 0.975000 0.423077 Al
0.000000 0.475000 0.423077 Al
0.200000 0.975000 0.423077 Al
0.200000 0.475000 0.423077 Al
0.400000 0.975000 0.423077 Al
0.400000 0.475000 0.423077 Al
0.600000 0.975000 0.423077 Al
0.600000 0.475000 0.423077 Al
0.800000 0.975000 0.423077 Al
0.800000 0.475000 0.423077 Al
0.000000 0.825000 0.397436 Al
0.000000 0.325000 0.397436 Al
0.200000 0.825000 0.397436 Al
0.200000 0.325000 0.397436 Al
0.400000 0.825000 0.397436 Al
0.400000 0.325000 0.397436 Al
0.600000 0.825000 0.397436 Al
0.600000 0.325000 0.397436 Al
0.800000 0.825000 0.397436 Al
0.800000 0.325000 0.397436 Al
0.000000 0.175000 0.371795 Al
0.000000 0.675000 0.371795 Al
0.200000 0.175000 0.371795 Al
0.200000 0.675000 0.371795 Al
0.400000 0.175000 0.371795 Al
0.400000 0.675000 0.371795 Al
0.600000 0.175000 0.371795 Al
0.600000 0.675000 0.371795 Al
0.800000 0.175000 0.371795 Al
0.800000 0.675000 0.371795 Al
0.000000 0.025000 0.474359 Al
0.000000 0.525000 0.474359 Al
0.200000 0.025000 0.474359 Al
0.200000 0.525000 0.474359 Al
0.400000 0.025000 0.474359 Al
0.400000 0.525000 0.474359 Al
0.600000 0.025000 0.474359 Al
0.600000 0.525000 0.474359 Al
0.800000 0.025000 0.474359 Al
0.800000 0.525000 0.474359 Al
0.000000 0.875000 0.448718 Al
0.000000 0.375000 0.448718 Al
0.200000 0.875000 0.448718 Al
0.200000 0.375000 0.448718 Al
0.400000 0.875000 0.448718 Al
0.400000 0.375000 0.448718 Al
0.600000 0.875000 0.448718 Al
0.600000 0.375000 0.448718 Al
0.800000 0.875000 0.448718 Al
0.800000 0.375000 0.448718 Al
0.000000 0.725000 0.423077 Al
0.000000 0.225000 0.423077 Al
0.200000 0.725000 0.423077 Al
0.200000 0.225000 0.423077 Al
0.400000 0.725000 0.423077 Al
0.400000 0.225000 0.423077 Al
0.600000 0.725000 0.423077 Al
0.600000 0.225000 0.423077 Al
0.800000 0.725000 0.423077 Al
0.800000 0.225000 0.423077 Al
0.100000 0.950000 0.461538 Al
0.100000 0.450000 0.461538 Al
0.300000 0.950000 0.461538 Al
0.300000 0.450000 0.461538 Al
0.500000 0.950000 0.461538 Al
0.500000 0.450000 0.461538 Al
0.700000 0.950000 0.461538 Al
0.700000 0.450000 0.461538 Al
0.900000 0.950000 0.461538 Al
0.900000 0.450000 0.461538 Al
0.100000 0.800000 0.435897 Al
0.100000 0.300000 0.435897 Al
0.300000 0.800000 0.435897 Al
0.300000 0.300000 0.435897 Al
0.500000 0.800000 0.435897 Al
0.500000 0.300000 0.435897 Al
0.700000 0.800000 0.435897 Al
0.700000 0.300000 0.435897 Al
0.900000 0.800000 0.435897 Al
0.900000 0.300000 0.435897 Al
0.100000 0.100000 0.487179 Al
0.100000 0.600000 0.487179 Al
0.300000 0.100000 0.487179 Al
0.300000 0.600000 0.487179 Al
0.500000 0.100000 0.487179 Al
0.500000 0.600000 0.487179 Al
0.700000 0.100000 0.487179 Al
0.700000 0.600000 0.487179 Al
0.900000 0.100000 0.487179 Al
0.900000 0.600000 0.487179 Al
0.100000 0.050000 0.435897 Al
0.100000 0.550000 0.435897 Al
0.300000 0.050000 0.435897 Al
0.300000 0.550000 0.435897 Al
0.500000 0.050000 0.435897 Al
0.500000 0.550000 0.435897 Al
0.700000 0.050000 0.435897 Al
0.700000 0.550000 0.435897 Al
0.900000 0.050000 0.435897 Al
0.900000 0.550000 0.435897 Al
0.100000 0.850000 0.487179 Al
0.100000 0.350000 0.487179 Al
0.300000 0.850000 0.487179 Al
0.300000 0.350000 0.487179 Al
0.500000 0.850000 0.487179 Al
0.500000 0.350000 0.487179 Al
0.700000 0.850000 0.487179 Al
0.700000 0.350000 0.487179 Al
0.900000 0.850000 0.487179 Al
0.900000 0.350000 0.487179 Al
0.100000 0.700000 0.461538 Al
0.100000 0.200000 0.461538 Al
0.300000 0.700000 0.461538 Al
0.300000 0.200000 0.461538 Al
0.500000 0.700000 0.461538 Al
0.500000 0.200000 0.461538 Al
0.700000 0.700000 0.461538 Al
0.700000 0.200000 0.461538 Al
0.900000 0.700000 0.461538 Al
0.900000 0.200000 0.461538 Al
0.000000 0.925000 0.500000 Al
0.000000 0.425000 0.500000 Al
0.200000 0.925000 0.500000 Al
0.200000 0.425000 0.500000 Al
0.400000 0.925000 0.500000 Al
0.400000 0.425000 0.500000 Al
0.600000 0.925000 0.500000 Al
0.600000 0.425000 0.500000 Al
0.800000 0.925000 0.500000 Al
0.800000 0.425000 0.500000 Al
0.000000 0.775000 0.474359 Al
0.000000 0.275000 0.474359 Al
0.200000 0.775000 0.474359 Al
0.200000 0.275000 0.474359 Al
0.400000 0.775000 0.474359 Al
0.400000 0.275000 0.474359 Al
0.600000 0.775000 0.474359 Al
0.600000 0.275000 0.474359 Al
0.800000 0.775000 0.474359 Al
0.800000 0.275000 0.474359 Al
0.000000 0.125000 0.448718 Al
0.000000 0.625000 0.448718 Al
0.200000 0.125000 0.448718 Al
0.200000 0.625000 0.448718 Al
0.400000 0.125000 0.448718 Al
0.400000 0.625000 0.448718 Al
0.600000 0.125000 0.448718 Al
0.600000 0.625000 0.448718 Al
0.800000 0.125000 0.448718 Al
0.800000 0.625000 0.448718 Al
0.000000 0.975000 0.551282 Al
0.000000 0.475000 0.551282 Al
0.200000 0.975000 0.551282 Al
0.200000 0.475000 0.551282 Al
0.400000 0.975000 0.551282 Al
0.400000 0.475000 0.551282 Al
0.600000 0.975000 0.551282 Al
0.600000 0.475000 0.551282 Al
0.800000 0.975000 0.551282 Al
0.800000 0.475000 0.551282 Al
0.000000 0.825000 0.525641 Al
0.000000 0.325000 0.525641 Al
0.200000 0.825000 0.525641 Al
0.200000 0.325000 0.525641 Al
0.400000 0.825000 0.525641 Al
0.400000 0.325000 0.525641 Al
0.600000 0.825000 0.525641 Al
0.600000 0.325000 0.525641 Al
0.800000 0.825000 0.525641 Al
0.800000 0.325000 0.525641 Al
0.000000 0.675000 0.500000 Al
0.000000 0.175000 0.500000 Al
0.200000 0.675000 0.500000 Al
0.200000 0.175000 0.500000 Al
0.400000 0.675000 0.500000 Al
0.400000 0.175000 0.500000 Al
0.600000 0.675000 0.500000 Al
0.600000 0.175000 0.500000 Al
0.800000 0.675000 0.500000 Al
0.800000 0.175000 0.500000 Al
0.100000 0.900000 0.538462 Al
0.100000 0.400000 0.538462 Al
0.300000 0.900000 0.538462 Al
0.300000 0.400000 0.538462 Al
0.500000 0.900000 0.538462 Al
0.500000 0.400000 0.538462 Al
0.700000 0.900000 0.538462 Al
0.700000 0.400000 0.538462 Al
0.900000 0.900000 0.538462 Al
0.900000 0.400000 0.538462 Al
0.100000 0.750000 0.512821 Al
0.100000 0.250000 0.512821 Al
0.300000 0.750000 0.512821 Al
0.300000 0.250000 0.512821 Al
0.500000 0.750000 0.512821 Al
0.500000 0.250000 0.512821 Al
0.700000 0.750000 0.512821 Al
0.700000 0.250000 0.512821 Al
0.900000 0.750000 0.512821 Al
0.900000 0.250000 0.512821 Al
0.100000 0.050000 0.564103 Al
0.100000 0.550000 0.564103 Al
0.300000 0.050000 0.564103 Al
0.300000 0.550000 0.564103 Al
0.500000 0.050000 0.564103 Al
0.500000 0.550000 0.564103 Al
0.700000 0.050000 0.564103 Al
0.700000 0.550000 0.564103 Al
0.900000 0.050000 0.564103 Al
0.900000 0.550000 0.564103 Al
0.100000 0.000000 0.512821 Al
0.100000 0.500000 0.512821 Al
0.300000 0.000000 0.512821 Al
0.300000 0.500000 0.512821 Al
0.500000 0.000000 0.512821 Al
0.500000 0.500000 0.512821 Al
0.700000 0.000000 0.512821 Al
0.700000 0.500000 0.512821 Al
0.900000 0.000000 0.512821 Al
0.900000 0.500000 0.512821 Al
0.100000 0.800000 0.564103 Al
0.100000 0.300000 0.564103 Al
0.300000 0.800000 0.564103 Al
0.300000 0.300000 0.564103 Al
0.500000 0.800000 0.564103 Al
0.500000 0.300000 0.564103 Al
0.700000 0.800000 0.564103 Al
0.700000 0.300000 0.564103 Al
0.900000 0.800000 0.564103 Al
0.900000 0.300000 0.564103 Al
0.100000 0.650000 0.538462 Al
0.100000 0.150000 0.538462 Al
0.300000 0.650000 0.538462 Al
0.300000 0.150000 0.538462 Al
0.500000 0.650000 0.538462 Al
0.500000 0.150000 0.538462 Al
0.700000 0.650000 0.538462 Al
0.700000 0.150000 0.538462 Al
0.900000 0.650000 0.538462 Al
0.900000 0.150000 0.538462 Al
0.000000 0.875000 0.576923 Al
0.000000 0.375000 0.576923 Al
0.200000 0.875000 0.576923 Al
0.200000 0.375000 0.576923 Al
0.400000 0.875000 0.576923 Al
0.400000 0.375000 0.576923 Al
0.600000 0.875000 0.576923 Al
0.600000 0.375000 0.576923 Al
0.800000 0.875000 0.576923 Al
0.800000 0.375000 0.576923 Al
0.000000 0.725000 0.551282 Al
0.000000 0.225000 0.551282 Al
0.200000 0.725000 0.551282 Al
0.200000 0.225000 0.551282 Al
0.400000 0.725000 0.551282 Al
0.400000 0.225000 0.551282 Al
0.600000 0.725000 0.551282 Al
0.600000 0.225000 0.551282 Al
0.800000 0.725000 0.551282 Al
0.800000 0.225000 0.551282 Al
0.000000 0.075000 0.525641 Al
0.000000 0.575000 0.525641 Al
0.200000 0.075000 0.525641 Al
0.200000 0.575000 0.525641 Al
0.400000 0.075000 0.525641 Al
0.400000 0.575000 0.525641 Al
0.600000 0.075000 0.525641 Al
0.600000 0.575000 0.525641 Al
0.800000 0.075000 0.525641 Al
0.800000 0.575000 0.525641 Al
0.000000 0.925000 0.628205 Al
0.000000 0.425000 0.628205 Al
0.200000 0.925000 0.628205 Al
0.200000 0.425000 0.628205 Al
0.400000 0.925000 0.628205 Al
0.400000 0.425000 0.628205 Al
0.600000 0.925000 0.628205 Al
0.600000 0.425000 0.628205 Al
0.800000 0.925000 0.628205 Al
0.800000 0.425000 0.628205 Al
0.000000 0.775000 0.602564 Al
0.000000 0.275000 0.602564 Al
0.200000 0.775000 0.602564 Al
0.200000 0.275000 0.602564 Al
0.400000 0.775000 0.602564 Al
0.400000 0.275000 0.602564 Al
0.600000 0.775000 0.602564 Al
0.600000 0.275000 0.602564 Al
0.800000 0.775000 0.602564 Al
0.800000 0.275000 0.602564 Al
0.000000 0.625000 0.576923 Al
0.000000 0.125000 0.576923 Al
0.200000 0.625000 0.576923 Al
0.200000 0.125000 0.576923 Al
0.400000 0.625000 0.576923 Al
0.400000 0.125000 0.576923 Al
0.600000 0.625000 0.576923 Al
0.600000 0.125000 0.576923 Al
0.800000 0.625000 0.576923 Al
0.800000 0.125000 0.576923 Al
0.100000 0.850000 0.615385 Al
0.100000 0.350000 0.615385 Al
0.300000 0.850000 0.615385 Al
0.300000 0.350000 0.615385 Al
0.500000 0.850000 0.615385 Al
0.500000 0.350000 0.615385 Al
0.700000 0.850000 0.615385 Al
0.700000 0.350000 0.615385 Al
0.900000 0.850000 0.615385 Al
0.900000 0.350000 0.615385 Al
0.100000 0.700000 0.589744 Al
0.100000 0.200000 0.589744 Al
0.300000 0.700000 0.589744 Al
0.300000 0.200000 0.589744 Al
0.500000 0.700000 0.589744 Al
0.500000 0.200000 0.589744 Al
0.700000 0.700000 0.589744 Al
0.700000 0.200000 0.589744 Al
0.900000 0.700000 0.589744 Al
0.900000 0.200000 0.589744 Al
0.100000 0.000000 0.641026 Al
0.100000 0.500000 0.641026 Al
0.300000 0.000000 0.641026 Al
0.300000 0.500000 0.641026 Al
0.500000 0.000000 0.641026 Al
0.500000 0.500000 0.641026 Al
0.700000 0.000000 0.641026 Al
0.700000 0.500000 0.641026 Al
0.900000 0.000000 0.641026 Al
0.900000 0.500000 0.641026 Al
0.100000 0.950000 0.589744 Al
0.100000 0.450000 0.589744 Al
0.300000 0.950000 0.589744 Al
0.300000 0.450000 0.589744 Al
0.500000 0.950000 0.589744 Al
0.500000 0.450000 0.589744 Al
0.700000 0.950000 0.589744 Al
0.700000 0.450000 0.589744 Al
0.900000 0.950000 0.589744 Al
0.900000 0.450000 0.589744 Al
0.100000 0.750000 0.641026 Al
0.100000 0.250000 0.641026 Al
0.300000 0.750000 0.641026 Al
0.300000 0.250000 0.641026 Al
0.500000 0.750000 0.641026 Al
0.500000 0.250000 0.641026 Al
0.700000 0.750000 0.641026 Al
0.700000 0.250000 0.641026 Al
0.900000 0.750000 0.641026 Al
0.900000 0.250000 0.641026 Al
0.100000 0.600000 0.615385 Al
0.100000 0.100000 0.615385 Al
0.300000 0.600000 0.615385 Al
0.300000 0.100000 0.615385 Al
0.500000 0.600000 0.615385 Al
0.500000 0.100000 0.615385 Al
0.700000 0.600000 0.615385 Al
0.700000 0.100000 0.615385 Al
0.900000 0.600000 0.615385 Al
0.900000 0.100000 0.615385 Al
0.000000 0.825000 0.653846 Al
0.000000 0.325000 0.653846 Al
0.200000 0.825000 0.653846 Al
0.200000 0.325000 0.653846 Al
0.400000 0.825000 0.653846 Al
0.400000 0.325000 0.653846 Al
0.600000 0.825000 0.653846 Al
0.600000 0.325000 0.653846 Al
0.800000 0.825000 0.653846 Al
0.800000 0.325000 0.653846 Al
0.000000 0.675000 0.628205 Al
0.000000 0.175000 0.628205 Al
0.200000 0.675000 0.628205 Al
0.200000 0.175000 0.628205 Al
0.400000 0.675000 0.628205 Al
0.400000 0.175000 0.628205 Al
0.600000 0.675000 0.628205 Al
0.600000 0.175000 0.628205 Al
0.800000 0.675000 0.628205 Al
0.800000 0.175000 0.628205 Al
0.000000 0.025000 0.602564 Al
0.000000 0.525000 0.602564 Al
0.200000 0.025000 0.602564 Al
0.200000 0.525000 0.602564 Al
0.400000 0.025000 0.602564 Al
0.400000 0.525000 0.602564 Al
0.600000 0.025000 0.602564 Al
0.600000 0.525000 0.602564 Al
0.800000 0.025000 0.602564 Al
0.800000 0.525000 0.602564 Al
0.000000 0.875000 0.705128 Al
0.000000 0.375000 0.705128 Al
0.200000 0.875000 0.705128 Al
0.200000 0.375000 0.705128 Al
0.400000 0.875000 0.705128 Al
0.400000 0.375000 0.705128 Al
0.600000 0.875000 0.705128 Al
0.600000 0.375000 0.705128 Al
0.800000 0.875000 0.705128 Al
0.800000 0.375000 0.705128 Al
0.000000 0.725000 0.679487 Al
0.000000 0.225000 0.679487 Al
0.200000 0.725000 0.679487 Al
0.200000 0.225000 0.679487 Al
0.400000 0.725000 0.679487 Al
0.400000 0.225000 0.679487 Al
0.600000 0.725000 0.679487 Al
0.600000 0.225000 0.679487 Al
0.800000 0.725000 0.679487 Al
0.800000 0.225000 0.679487 Al
0.000000 0.575000 0.653846 Al
0.000000 0.075000 0.653846 Al
0.200000 0.575000 0.653846 Al
0.200000 0.075000 0.653846 Al
0.400000 0.575000 0.653846 Al
0.400000 0.075000 0.653846 Al
0.600000 0.575000 0.653846 Al
0.600000 0.075000 0.653846 Al
0.800000 0.575000 0.653846 Al
0.800000 0.075000 0.653846 Al
0.100000 0.800000 0.692308 Al
0.100000 0.300000 0.692308 Al
0.300000 0.800000 0.692308 Al
0.300000 0.300000 0.692308 Al
0.500000 0.800000 0.692308 Al
0.500000 0.300000 0.692308 Al
0.700000 0.800000 0.692308 Al
0.700000 0.300000 0.692308 Al
0.900000 0.800000 0.692308 Al
0.900000 0.300000 0.692308 Al
0.100000 0.650000 0.666667 Al
0.100000 0.150000 0.666667 Al
0.300000 0.650000 0.666667 Al
0.300000 0.150000 0.666667 Al
0.500000 0.650000 0.666667 Al
0.500000 0.150000 0.666667 Al
0.700000 0.650000 0.666667 Al
0.700000 0.150000 0.666667 Al
0.900000 0.650000 0.666667 Al
0.900000 0.150000 0.666667 Al
0.100000 0.950000 0.717949 Al
0.100000 0.450000 0.717949 Al
0.300000 0.950000 0.717949 Al
0.300000 0.450000 0.717949 Al
0.500000 0.950000 0.717949 Al
0.500000 0.450000 0.717949 Al
0.700000 0.950000 0.717949 Al
0.700000 0.450000 0.717949 Al
0.900000 0.950000 0.717949 Al
0.900000 0.450000 0.717949 Al
0.100000 0.900000 0.666667 Al
0.100000 0.400000 0.666667 Al
0.300000 0.900000 0.666667 Al
0.300000 0.400000 0.666667 Al
0.500000 0.900000 0.666667 Al
0.500000 0.400000 0.666667 Al
0.700000 0.900000 0.666667 Al
0.700000 0.400000 0.666667 Al
0.900000 0.900000 0.666667 Al
0.900000 0.400000 0.666667 Al
0.100000 0.700000 0.717949 Al
0.100000 0.200000 0.717949 Al
0.300000 0.700000 0.717949 Al
0.300000 0.200000 0.717949 Al
0.500000 0.700000 0.717949 Al
0.500000 0.200000 0.717949 Al
0.700000 0.700000 0.717949 Al
0.700000 0.200000 0.717949 Al
0.900000 0.700000 0.717949 Al
0.900000 0.200000 0.717949 Al
0.100000 0.550000 0.692308 Al
0.100000 0.050000 0.692308 Al
0.300000 0.550000 0.692308 Al
0.300000 0.050000 0.692308 Al
0.500000 0.550000 0.692308 Al
0.500000 0.050000 0.692308 Al
0.700000 0.550000 0.692308 Al
0.700000 0.050000 0.692308 Al
0.900000 0.550000 0.692308 Al
0.900000 0.050000 0.692308 Al
0.000000 0.775000 0.730769 Al
0.000000 0.275000 0.730769 Al
0.200000 0.775000 0.730769 Al
0.200000 0.275000 0.730769 Al
0.400000 0.775000 0.730769 Al
0.400000 0.275000 0.730769 Al
0.600000 0.775000 0.730769 Al
0.600000 0.275000 0.730769 Al
0.800000 0.775000 0.730769 Al
0.800000 0.275000 0.730769 Al
0.000000 0.625000 0.705128 Al
0.000000 0.125000 0.705128 Al
0.200000 0.625000 0.705128 Al
0.200000 0.125000 0.705128 Al
0.400000 0.625000 0.705128 Al
0.400000 0.125000 0.705128 Al
0.600000 0.625000 0.705128 Al
0.600000 0.125000 0.705128 Al
0.800000 0.625000 0.705128 Al
0.800000 0.125000 0.705128 Al
0.000000 0.975000 0.679487 Al
0.000000 0.475000 0.679487 Al
0.200000 0.975000 0.679487 Al
0.200000 0.475000 0.679487 Al
0.400000 0.975000 0.679487 Al
0.400000 0.475000 0.679487 Al
0.600000 0.975000 0.679487 Al
0.600000 0.475000 0.679487 Al
0.800000 0.975000 0.679487 Al
0.800000 0.475000 0.679487 Al
