Surf-3_2_1@vac25@size20
1.0
-16.200000 24.300000 0.000000
-8.100000 0.000000 24.300000
39.053571 26.035714 13.017857
Al
1008
direct
0.979167 0.656250 0.330556 Al
0.479167 0.656250 0.330556 Al
0.812500 0.489583 0.330556 Al
0.312500 0.489583 0.330556 Al
0.860119 0.680060 0.286111 Al
0.360119 0.680060 0.286111 Al
0.979167 0.156250 0.330556 Al
0.479167 0.156250 0.330556 Al
0.026786 0.346726 0.286111 Al
0.526786 0.346726 0.286111 Al
0.002976 0.501488 0.308333 Al
0.502976 0.501488 0.308333 Al
0.717262 0.358631 0.263889 Al
0.217262 0.358631 0.263889 Al
0.693452 0.513393 0.286111 Al
0.193452 0.513393 0.286111 Al
0.669643 0.668155 0.308333 Al
0.169643 0.668155 0.308333 Al
0.812500 0.989583 0.330556 Al
0.312500 0.989583 0.330556 Al
0.860119 0.180060 0.286111 Al
0.360119 0.180060 0.286111 Al
0.836310 0.334821 0.308333 Al
0.336310 0.334821 0.308333 Al
0.026786 0.846726 0.286111 Al
0.526786 0.846726 0.286111 Al
0.002976 0.001488 0.308333 Al
0.502976 0.001488 0.308333 Al
0.717262 0.858631 0.263889 Al
0.217262 0.858631 0.263889 Al
0.693452 0.013393 0.286111 Al
0.193452 0.013393 0.286111 Al
0.669643 0.168155 0.308333 Al
0.169643 0.168155 0.308333 Al
0.836310 0.834821 0.308333 Al
0.336310 0.834821 0.308333 Al
0.098214 0.757440 0.297222 Al
0.598214 0.757440 0.297222 Al
0.931548 0.590774 0.297222 Al
0.431548 0.590774 0.297222 Al
0.907738 0.745536 0.319444 Al
0.407738 0.745536 0.319444 Al
0.098214 0.257440 0.297222 Al
0.598214 0.257440 0.297222 Al
0.074405 0.412202 0.319444 Al
0.574405 0.412202 0.319444 Al
0.122024 0.602679 0.275000 Al
0.622024 0.602679 0.275000 Al
0.764881 0.424107 0.297222 Al
0.264881 0.424107 0.297222 Al
0.741071 0.578869 0.319444 Al
0.241071 0.578869 0.319444 Al
0.788690 0.769345 0.275000 Al
0.288690 0.769345 0.275000 Al
0.931548 0.090774 0.297222 Al
0.431548 0.090774 0.297222 Al
0.907738 0.245536 0.319444 Al
0.407738 0.245536 0.319444 Al
0.955357 0.436012 0.275000 Al
0.455357 0.436012 0.275000 Al
0.074405 0.912202 0.319444 Al
0.574405 0.912202 0.319444 Al
0.122024 0.102679 0.275000 Al
0.622024 0.102679 0.275000 Al
0.764881 0.924107 0.297222 Al
0.264881 0.924107 0.297222 Al
0.741071 0.078869 0.319444 Al
0.241071 0.078869 0.319444 Al
0.788690 0.269345 0.275000 Al
0.288690 0.269345 0.275000 Al
0.955357 0.936012 0.275000 Al
0.455357 0.936012 0.275000 Al
0.002976 0.751488 0.308333 Al
0.502976 0.751488 0.308333 Al
0.836310 0.584821 0.308333 Al
0.336310 0.584821 0.308333 Al
0.812500 0.739583 0.330556 Al
0.312500 0.739583 0.330556 Al
0.002976 0.251488 0.308333 Al
0.502976 0.251488 0.308333 Al
0.979167 0.406250 0.330556 Al
0.479167 0.406250 0.330556 Al
0.026786 0.596726 0.286111 Al
0.526786 0.596726 0.286111 Al
0.669643 0.418155 0.308333 Al
0.169643 0.418155 0.308333 Al
0.645833 0.572917 0.330556 Al
0.145833 0.572917 0.330556 Al
0.693452 0.763393 0.286111 Al
0.193452 0.763393 0.286111 Al
0.836310 0.084821 0.308333 Al
0.336310 0.084821 0.308333 Al
0.812500 0.239583 0.330556 Al
0.312500 0.239583 0.330556 Al
0.860119 0.430060 0.286111 Al
0.360119 0.430060 0.286111 Al
0.979167 0.906250 0.330556 Al
0.479167 0.906250 0.330556 Al
0.026786 0.096726 0.286111 Al
0.526786 0.096726 0.286111 Al
0.669643 0.918155 0.308333 Al
0.169643 0.918155 0.308333 Al
0.717262 0.108631 0.263889 Al
0.217262 0.108631 0.263889 Al
0.693452 0.263393 0.286111 Al
0.193452 0.263393 0.286111 Al
0.860119 0.930060 0.286111 Al
0.360119 0.930060 0.286111 Al
0.074405 0.662202 0.319444 Al
0.574405 0.662202 0.319444 Al
0.907738 0.495536 0.319444 Al
0.407738 0.495536 0.319444 Al
0.955357 0.686012 0.275000 Al
0.455357 0.686012 0.275000 Al
0.074405 0.162202 0.319444 Al
0.574405 0.162202 0.319444 Al
0.122024 0.352679 0.275000 Al
0.622024 0.352679 0.275000 Al
0.098214 0.507440 0.297222 Al
0.598214 0.507440 0.297222 Al
0.741071 0.328869 0.319444 Al
0.241071 0.328869 0.319444 Al
0.788690 0.519345 0.275000 Al
0.288690 0.519345 0.275000 Al
0.764881 0.674107 0.297222 Al
0.264881 0.674107 0.297222 Al
0.907738 0.995536 0.319444 Al
0.407738 0.995536 0.319444 Al
0.955357 0.186012 0.275000 Al
0.455357 0.186012 0.275000 Al
0.931548 0.340774 0.297222 Al
0.431548 0.340774 0.297222 Al
0.122024 0.852679 0.275000 Al
0.622024 0.852679 0.275000 Al
0.098214 0.007440 0.297222 Al
0.598214 0.007440 0.297222 Al
0.741071 0.828869 0.319444 Al
0.241071 0.828869 0.319444 Al
0.788690 0.019345 0.275000 Al
0.288690 0.019345 0.275000 Al
0.764881 0.174107 0.297222 Al
0.264881 0.174107 0.297222 Al
0.931548 0.840774 0.297222 Al
0.431548 0.840774 0.297222 Al
0.907738 0.620536 0.397222 Al
0.407738 0.620536 0.397222 Al
0.741071 0.453869 0.397222 Al
0.241071 0.453869 0.397222 Al
0.788690 0.644345 0.352778 Al
0.288690 0.644345 0.352778 Al
0.907738 0.120536 0.397222 Al
0.407738 0.120536 0.397222 Al
0.955357 0.311012 0.352778 Al
0.455357 0.311012 0.352778 Al
0.931548 0.465774 0.375000 Al
0.431548 0.465774 0.375000 Al
0.645833 0.322917 0.330556 Al
0.145833 0.322917 0.330556 Al
0.622024 0.477679 0.352778 Al
0.122024 0.477679 0.352778 Al
0.598214 0.632440 0.375000 Al
0.098214 0.632440 0.375000 Al
0.741071 0.953869 0.397222 Al
0.241071 0.953869 0.397222 Al
0.788690 0.144345 0.352778 Al
0.288690 0.144345 0.352778 Al
0.764881 0.299107 0.375000 Al
0.264881 0.299107 0.375000 Al
0.955357 0.811012 0.352778 Al
0.455357 0.811012 0.352778 Al
0.931548 0.965774 0.375000 Al
0.431548 0.965774 0.375000 Al
0.645833 0.822917 0.330556 Al
0.145833 0.822917 0.330556 Al
0.622024 0.977679 0.352778 Al
0.122024 0.977679 0.352778 Al
0.598214 0.132440 0.375000 Al
0.098214 0.132440 0.375000 Al
0.764881 0.799107 0.375000 Al
0.264881 0.799107 0.375000 Al
0.026786 0.721726 0.363889 Al
0.526786 0.721726 0.363889 Al
0.860119 0.555060 0.363889 Al
0.360119 0.555060 0.363889 Al
0.836310 0.709821 0.386111 Al
0.336310 0.709821 0.386111 Al
0.026786 0.221726 0.363889 Al
0.526786 0.221726 0.363889 Al
0.002976 0.376488 0.386111 Al
0.502976 0.376488 0.386111 Al
0.050595 0.566964 0.341667 Al
0.550595 0.566964 0.341667 Al
0.693452 0.388393 0.363889 Al
0.193452 0.388393 0.363889 Al
0.669643 0.543155 0.386111 Al
0.169643 0.543155 0.386111 Al
0.717262 0.733631 0.341667 Al
0.217262 0.733631 0.341667 Al
0.860119 0.055060 0.363889 Al
0.360119 0.055060 0.363889 Al
0.836310 0.209821 0.386111 Al
0.336310 0.209821 0.386111 Al
0.883929 0.400298 0.341667 Al
0.383929 0.400298 0.341667 Al
0.002976 0.876488 0.386111 Al
0.502976 0.876488 0.386111 Al
0.050595 0.066964 0.341667 Al
0.550595 0.066964 0.341667 Al
0.693452 0.888393 0.363889 Al
0.193452 0.888393 0.363889 Al
0.669643 0.043155 0.386111 Al
0.169643 0.043155 0.386111 Al
0.717262 0.233631 0.341667 Al
0.217262 0.233631 0.341667 Al
0.883929 0.900298 0.341667 Al
0.383929 0.900298 0.341667 Al
0.931548 0.715774 0.375000 Al
0.431548 0.715774 0.375000 Al
0.764881 0.549107 0.375000 Al
0.264881 0.549107 0.375000 Al
0.741071 0.703869 0.397222 Al
0.241071 0.703869 0.397222 Al
0.931548 0.215774 0.375000 Al
0.431548 0.215774 0.375000 Al
0.907738 0.370536 0.397222 Al
0.407738 0.370536 0.397222 Al
0.955357 0.561012 0.352778 Al
0.455357 0.561012 0.352778 Al
0.598214 0.382440 0.375000 Al
0.098214 0.382440 0.375000 Al
0.574405 0.537202 0.397222 Al
0.074405 0.537202 0.397222 Al
0.622024 0.727679 0.352778 Al
0.122024 0.727679 0.352778 Al
0.764881 0.049107 0.375000 Al
0.264881 0.049107 0.375000 Al
0.741071 0.203869 0.397222 Al
0.241071 0.203869 0.397222 Al
0.788690 0.394345 0.352778 Al
0.288690 0.394345 0.352778 Al
0.907738 0.870536 0.397222 Al
0.407738 0.870536 0.397222 Al
0.955357 0.061012 0.352778 Al
0.455357 0.061012 0.352778 Al
0.598214 0.882440 0.375000 Al
0.098214 0.882440 0.375000 Al
0.645833 0.072917 0.330556 Al
0.145833 0.072917 0.330556 Al
0.622024 0.227679 0.352778 Al
0.122024 0.227679 0.352778 Al
0.788690 0.894345 0.352778 Al
0.288690 0.894345 0.352778 Al
0.002976 0.626488 0.386111 Al
0.502976 0.626488 0.386111 Al
0.836310 0.459821 0.386111 Al
0.336310 0.459821 0.386111 Al
0.883929 0.650298 0.341667 Al
0.383929 0.650298 0.341667 Al
0.002976 0.126488 0.386111 Al
0.502976 0.126488 0.386111 Al
0.050595 0.316964 0.341667 Al
0.550595 0.316964 0.341667 Al
0.026786 0.471726 0.363889 Al
0.526786 0.471726 0.363889 Al
0.669643 0.293155 0.386111 Al
0.169643 0.293155 0.386111 Al
0.717262 0.483631 0.341667 Al
0.217262 0.483631 0.341667 Al
0.693452 0.638393 0.363889 Al
0.193452 0.638393 0.363889 Al
0.836310 0.959821 0.386111 Al
0.336310 0.959821 0.386111 Al
0.883929 0.150298 0.341667 Al
0.383929 0.150298 0.341667 Al
0.860119 0.305060 0.363889 Al
0.360119 0.305060 0.363889 Al
0.050595 0.816964 0.341667 Al
0.550595 0.816964 0.341667 Al
0.026786 0.971726 0.363889 Al
0.526786 0.971726 0.363889 Al
0.669643 0.793155 0.386111 Al
0.169643 0.793155 0.386111 Al
0.717262 0.983631 0.341667 Al
0.217262 0.983631 0.341667 Al
0.693452 0.138393 0.363889 Al
0.193452 0.138393 0.363889 Al
0.860119 0.805060 0.363889 Al
0.360119 0.805060 0.363889 Al
0.836310 0.584821 0.463889 Al
0.336310 0.584821 0.463889 Al
0.669643 0.418155 0.463889 Al
0.169643 0.418155 0.463889 Al
0.717262 0.608631 0.419444 Al
0.217262 0.608631 0.419444 Al
0.836310 0.084821 0.463889 Al
0.336310 0.084821 0.463889 Al
0.883929 0.275298 0.419444 Al
0.383929 0.275298 0.419444 Al
0.860119 0.430060 0.441667 Al
0.360119 0.430060 0.441667 Al
0.574405 0.287202 0.397222 Al
0.074405 0.287202 0.397222 Al
0.550595 0.441964 0.419444 Al
0.050595 0.441964 0.419444 Al
0.526786 0.596726 0.441667 Al
0.026786 0.596726 0.441667 Al
0.669643 0.918155 0.463889 Al
0.169643 0.918155 0.463889 Al
0.717262 0.108631 0.419444 Al
0.217262 0.108631 0.419444 Al
0.693452 0.263393 0.441667 Al
0.193452 0.263393 0.441667 Al
0.883929 0.775298 0.419444 Al
0.383929 0.775298 0.419444 Al
0.860119 0.930060 0.441667 Al
0.360119 0.930060 0.441667 Al
0.574405 0.787202 0.397222 Al
0.074405 0.787202 0.397222 Al
0.550595 0.941964 0.419444 Al
0.050595 0.941964 0.419444 Al
0.526786 0.096726 0.441667 Al
0.026786 0.096726 0.441667 Al
0.693452 0.763393 0.441667 Al
0.193452 0.763393 0.441667 Al
0.955357 0.686012 0.430556 Al
0.455357 0.686012 0.430556 Al
0.788690 0.519345 0.430556 Al
0.288690 0.519345 0.430556 Al
0.764881 0.674107 0.452778 Al
0.264881 0.674107 0.452778 Al
0.955357 0.186012 0.430556 Al
0.455357 0.186012 0.430556 Al
0.931548 0.340774 0.452778 Al
0.431548 0.340774 0.452778 Al
0.979167 0.531250 0.408333 Al
0.479167 0.531250 0.408333 Al
0.622024 0.352679 0.430556 Al
0.122024 0.352679 0.430556 Al
0.598214 0.507440 0.452778 Al
0.098214 0.507440 0.452778 Al
0.645833 0.697917 0.408333 Al
0.145833 0.697917 0.408333 Al
0.788690 0.019345 0.430556 Al
0.288690 0.019345 0.430556 Al
0.764881 0.174107 0.452778 Al
0.264881 0.174107 0.452778 Al
0.812500 0.364583 0.408333 Al
0.312500 0.364583 0.408333 Al
0.931548 0.840774 0.452778 Al
0.431548 0.840774 0.452778 Al
0.979167 0.031250 0.408333 Al
0.479167 0.031250 0.408333 Al
0.622024 0.852679 0.430556 Al
0.122024 0.852679 0.430556 Al
0.598214 0.007440 0.452778 Al
0.098214 0.007440 0.452778 Al
0.645833 0.197917 0.408333 Al
0.145833 0.197917 0.408333 Al
0.812500 0.864583 0.408333 Al
0.312500 0.864583 0.408333 Al
0.860119 0.680060 0.441667 Al
0.360119 0.680060 0.441667 Al
0.693452 0.513393 0.441667 Al
0.193452 0.513393 0.441667 Al
0.669643 0.668155 0.463889 Al
0.169643 0.668155 0.463889 Al
0.860119 0.180060 0.441667 Al
0.360119 0.180060 0.441667 Al
0.836310 0.334821 0.463889 Al
0.336310 0.334821 0.463889 Al
0.883929 0.525298 0.419444 Al
0.383929 0.525298 0.419444 Al
0.526786 0.346726 0.441667 Al
0.026786 0.346726 0.441667 Al
0.502976 0.501488 0.463889 Al
0.002976 0.501488 0.463889 Al
0.550595 0.691964 0.419444 Al
0.050595 0.691964 0.419444 Al
0.693452 0.013393 0.441667 Al
0.193452 0.013393 0.441667 Al
0.669643 0.168155 0.463889 Al
0.169643 0.168155 0.463889 Al
0.717262 0.358631 0.419444 Al
0.217262 0.358631 0.419444 Al
0.836310 0.834821 0.463889 Al
0.336310 0.834821 0.463889 Al
0.883929 0.025298 0.419444 Al
0.383929 0.025298 0.419444 Al
0.526786 0.846726 0.441667 Al
0.026786 0.846726 0.441667 Al
0.574405 0.037202 0.397222 Al
0.074405 0.037202 0.397222 Al
0.550595 0.191964 0.419444 Al
0.050595 0.191964 0.419444 Al
0.717262 0.858631 0.419444 Al
0.217262 0.858631 0.419444 Al
0.931548 0.590774 0.452778 Al
0.431548 0.590774 0.452778 Al
0.764881 0.424107 0.452778 Al
0.264881 0.424107 0.452778 Al
0.812500 0.614583 0.408333 Al
0.312500 0.614583 0.408333 Al
0.931548 0.090774 0.452778 Al
0.431548 0.090774 0.452778 Al
0.979167 0.281250 0.408333 Al
0.479167 0.281250 0.408333 Al
0.955357 0.436012 0.430556 Al
0.455357 0.436012 0.430556 Al
0.598214 0.257440 0.452778 Al
0.098214 0.257440 0.452778 Al
0.645833 0.447917 0.408333 Al
0.145833 0.447917 0.408333 Al
0.622024 0.602679 0.430556 Al
0.122024 0.602679 0.430556 Al
0.764881 0.924107 0.452778 Al
0.264881 0.924107 0.452778 Al
0.812500 0.114583 0.408333 Al
0.312500 0.114583 0.408333 Al
0.788690 0.269345 0.430556 Al
0.288690 0.269345 0.430556 Al
0.979167 0.781250 0.408333 Al
0.479167 0.781250 0.408333 Al
0.955357 0.936012 0.430556 Al
0.455357 0.936012 0.430556 Al
0.598214 0.757440 0.452778 Al
0.098214 0.757440 0.452778 Al
0.645833 0.947917 0.408333 Al
0.145833 0.947917 0.408333 Al
0.622024 0.102679 0.430556 Al
0.122024 0.102679 0.430556 Al
0.788690 0.769345 0.430556 Al
0.288690 0.769345 0.430556 Al
0.764881 0.549107 0.530556 Al
0.264881 0.549107 0.530556 Al
0.598214 0.382440 0.530556 Al
0.098214 0.382440 0.530556 Al
0.645833 0.572917 0.486111 Al
0.145833 0.572917 0.486111 Al
0.764881 0.049107 0.530556 Al
0.264881 0.049107 0.530556 Al
0.812500 0.239583 0.486111 Al
0.312500 0.239583 0.486111 Al
0.788690 0.394345 0.508333 Al
0.288690 0.394345 0.508333 Al
0.502976 0.251488 0.463889 Al
0.002976 0.251488 0.463889 Al
0.479167 0.406250 0.486111 Al
0.979167 0.406250 0.486111 Al
0.455357 0.561012 0.508333 Al
0.955357 0.561012 0.508333 Al
0.598214 0.882440 0.530556 Al
0.098214 0.882440 0.530556 Al
0.645833 0.072917 0.486111 Al
0.145833 0.072917 0.486111 Al
0.622024 0.227679 0.508333 Al
0.122024 0.227679 0.508333 Al
0.812500 0.739583 0.486111 Al
0.312500 0.739583 0.486111 Al
0.788690 0.894345 0.508333 Al
0.288690 0.894345 0.508333 Al
0.502976 0.751488 0.463889 Al
0.002976 0.751488 0.463889 Al
0.479167 0.906250 0.486111 Al
0.979167 0.906250 0.486111 Al
0.455357 0.061012 0.508333 Al
0.955357 0.061012 0.508333 Al
0.622024 0.727679 0.508333 Al
0.122024 0.727679 0.508333 Al
0.883929 0.650298 0.497222 Al
0.383929 0.650298 0.497222 Al
0.717262 0.483631 0.497222 Al
0.217262 0.483631 0.497222 Al
0.693452 0.638393 0.519444 Al
0.193452 0.638393 0.519444 Al
0.883929 0.150298 0.497222 Al
0.383929 0.150298 0.497222 Al
0.860119 0.305060 0.519444 Al
0.360119 0.305060 0.519444 Al
0.907738 0.495536 0.475000 Al
0.407738 0.495536 0.475000 Al
0.550595 0.316964 0.497222 Al
0.050595 0.316964 0.497222 Al
0.526786 0.471726 0.519444 Al
0.026786 0.471726 0.519444 Al
0.574405 0.662202 0.475000 Al
0.074405 0.662202 0.475000 Al
0.717262 0.983631 0.497222 Al
0.217262 0.983631 0.497222 Al
0.693452 0.138393 0.519444 Al
0.193452 0.138393 0.519444 Al
0.741071 0.328869 0.475000 Al
0.241071 0.328869 0.475000 Al
0.860119 0.805060 0.519444 Al
0.360119 0.805060 0.519444 Al
0.907738 0.995536 0.475000 Al
0.407738 0.995536 0.475000 Al
0.550595 0.816964 0.497222 Al
0.050595 0.816964 0.497222 Al
0.526786 0.971726 0.519444 Al
0.026786 0.971726 0.519444 Al
0.574405 0.162202 0.475000 Al
0.074405 0.162202 0.475000 Al
0.741071 0.828869 0.475000 Al
0.241071 0.828869 0.475000 Al
0.788690 0.644345 0.508333 Al
0.288690 0.644345 0.508333 Al
0.622024 0.477679 0.508333 Al
0.122024 0.477679 0.508333 Al
0.598214 0.632440 0.530556 Al
0.098214 0.632440 0.530556 Al
0.788690 0.144345 0.508333 Al
0.288690 0.144345 0.508333 Al
0.764881 0.299107 0.530556 Al
0.264881 0.299107 0.530556 Al
0.812500 0.489583 0.486111 Al
0.312500 0.489583 0.486111 Al
0.455357 0.311012 0.508333 Al
0.955357 0.311012 0.508333 Al
0.431548 0.465774 0.530556 Al
0.931548 0.465774 0.530556 Al
0.479167 0.656250 0.486111 Al
0.979167 0.656250 0.486111 Al
0.622024 0.977679 0.508333 Al
0.122024 0.977679 0.508333 Al
0.598214 0.132440 0.530556 Al
0.098214 0.132440 0.530556 Al
0.645833 0.322917 0.486111 Al
0.145833 0.322917 0.486111 Al
0.764881 0.799107 0.530556 Al
0.264881 0.799107 0.530556 Al
0.812500 0.989583 0.486111 Al
0.312500 0.989583 0.486111 Al
0.455357 0.811012 0.508333 Al
0.955357 0.811012 0.508333 Al
0.502976 0.001488 0.463889 Al
0.002976 0.001488 0.463889 Al
0.479167 0.156250 0.486111 Al
0.979167 0.156250 0.486111 Al
0.645833 0.822917 0.486111 Al
0.145833 0.822917 0.486111 Al
0.860119 0.555060 0.519444 Al
0.360119 0.555060 0.519444 Al
0.693452 0.388393 0.519444 Al
0.193452 0.388393 0.519444 Al
0.741071 0.578869 0.475000 Al
0.241071 0.578869 0.475000 Al
0.860119 0.055060 0.519444 Al
0.360119 0.055060 0.519444 Al
0.907738 0.245536 0.475000 Al
0.407738 0.245536 0.475000 Al
0.883929 0.400298 0.497222 Al
0.383929 0.400298 0.497222 Al
0.526786 0.221726 0.519444 Al
0.026786 0.221726 0.519444 Al
0.574405 0.412202 0.475000 Al
0.074405 0.412202 0.475000 Al
0.550595 0.566964 0.497222 Al
0.050595 0.566964 0.497222 Al
0.693452 0.888393 0.519444 Al
0.193452 0.888393 0.519444 Al
0.741071 0.078869 0.475000 Al
0.241071 0.078869 0.475000 Al
0.717262 0.233631 0.497222 Al
0.217262 0.233631 0.497222 Al
0.907738 0.745536 0.475000 Al
0.407738 0.745536 0.475000 Al
0.883929 0.900298 0.497222 Al
0.383929 0.900298 0.497222 Al
0.526786 0.721726 0.519444 Al
0.026786 0.721726 0.519444 Al
0.574405 0.912202 0.475000 Al
0.074405 0.912202 0.475000 Al
0.550595 0.066964 0.497222 Al
0.050595 0.066964 0.497222 Al
0.717262 0.733631 0.497222 Al
0.217262 0.733631 0.497222 Al
0.693452 0.513393 0.597222 Al
0.193452 0.513393 0.597222 Al
0.526786 0.346726 0.597222 Al
0.026786 0.346726 0.597222 Al
0.574405 0.537202 0.552778 Al
0.074405 0.537202 0.552778 Al
0.693452 0.013393 0.597222 Al
0.193452 0.013393 0.597222 Al
0.741071 0.203869 0.552778 Al
0.241071 0.203869 0.552778 Al
0.717262 0.358631 0.575000 Al
0.217262 0.358631 0.575000 Al
0.431548 0.215774 0.530556 Al
0.931548 0.215774 0.530556 Al
0.407738 0.370536 0.552778 Al
0.907738 0.370536 0.552778 Al
0.383929 0.525298 0.575000 Al
0.883929 0.525298 0.575000 Al
0.526786 0.846726 0.597222 Al
0.026786 0.846726 0.597222 Al
0.574405 0.037202 0.552778 Al
0.074405 0.037202 0.552778 Al
0.550595 0.191964 0.575000 Al
0.050595 0.191964 0.575000 Al
0.741071 0.703869 0.552778 Al
0.241071 0.703869 0.552778 Al
0.717262 0.858631 0.575000 Al
0.217262 0.858631 0.575000 Al
0.431548 0.715774 0.530556 Al
0.931548 0.715774 0.530556 Al
0.407738 0.870536 0.552778 Al
0.907738 0.870536 0.552778 Al
0.383929 0.025298 0.575000 Al
0.883929 0.025298 0.575000 Al
0.550595 0.691964 0.575000 Al
0.050595 0.691964 0.575000 Al
0.812500 0.614583 0.563889 Al
0.312500 0.614583 0.563889 Al
0.645833 0.447917 0.563889 Al
0.145833 0.447917 0.563889 Al
0.622024 0.602679 0.586111 Al
0.122024 0.602679 0.586111 Al
0.812500 0.114583 0.563889 Al
0.312500 0.114583 0.563889 Al
0.788690 0.269345 0.586111 Al
0.288690 0.269345 0.586111 Al
0.836310 0.459821 0.541667 Al
0.336310 0.459821 0.541667 Al
0.479167 0.281250 0.563889 Al
0.979167 0.281250 0.563889 Al
0.455357 0.436012 0.586111 Al
0.955357 0.436012 0.586111 Al
0.502976 0.626488 0.541667 Al
0.002976 0.626488 0.541667 Al
0.645833 0.947917 0.563889 Al
0.145833 0.947917 0.563889 Al
0.622024 0.102679 0.586111 Al
0.122024 0.102679 0.586111 Al
0.669643 0.293155 0.541667 Al
0.169643 0.293155 0.541667 Al
0.788690 0.769345 0.586111 Al
0.288690 0.769345 0.586111 Al
0.836310 0.959821 0.541667 Al
0.336310 0.959821 0.541667 Al
0.479167 0.781250 0.563889 Al
0.979167 0.781250 0.563889 Al
0.455357 0.936012 0.586111 Al
0.955357 0.936012 0.586111 Al
0.502976 0.126488 0.541667 Al
0.002976 0.126488 0.541667 Al
0.669643 0.793155 0.541667 Al
0.169643 0.793155 0.541667 Al
0.717262 0.608631 0.575000 Al
0.217262 0.608631 0.575000 Al
0.550595 0.441964 0.575000 Al
0.050595 0.441964 0.575000 Al
0.526786 0.596726 0.597222 Al
0.026786 0.596726 0.597222 Al
0.717262 0.108631 0.575000 Al
0.217262 0.108631 0.575000 Al
0.693452 0.263393 0.597222 Al
0.193452 0.263393 0.597222 Al
0.741071 0.453869 0.552778 Al
0.241071 0.453869 0.552778 Al
0.383929 0.275298 0.575000 Al
0.883929 0.275298 0.575000 Al
0.360119 0.430060 0.597222 Al
0.860119 0.430060 0.597222 Al
0.407738 0.620536 0.552778 Al
0.907738 0.620536 0.552778 Al
0.550595 0.941964 0.575000 Al
0.050595 0.941964 0.575000 Al
0.526786 0.096726 0.597222 Al
0.026786 0.096726 0.597222 Al
0.574405 0.287202 0.552778 Al
0.074405 0.287202 0.552778 Al
0.693452 0.763393 0.597222 Al
0.193452 0.763393 0.597222 Al
0.741071 0.953869 0.552778 Al
0.241071 0.953869 0.552778 Al
0.383929 0.775298 0.575000 Al
0.883929 0.775298 0.575000 Al
0.431548 0.965774 0.530556 Al
0.931548 0.965774 0.530556 Al
0.407738 0.120536 0.552778 Al
0.907738 0.120536 0.552778 Al
0.574405 0.787202 0.552778 Al
0.074405 0.787202 0.552778 Al
0.788690 0.519345 0.586111 Al
0.288690 0.519345 0.586111 Al
0.622024 0.352679 0.586111 Al
0.122024 0.352679 0.586111 Al
0.669643 0.543155 0.541667 Al
0.169643 0.543155 0.541667 Al
0.788690 0.019345 0.586111 Al
0.288690 0.019345 0.586111 Al
0.836310 0.209821 0.541667 Al
0.336310 0.209821 0.541667 Al
0.812500 0.364583 0.563889 Al
0.312500 0.364583 0.563889 Al
0.455357 0.186012 0.586111 Al
0.955357 0.186012 0.586111 Al
0.502976 0.376488 0.541667 Al
0.002976 0.376488 0.541667 Al
0.479167 0.531250 0.563889 Al
0.979167 0.531250 0.563889 Al
0.622024 0.852679 0.586111 Al
0.122024 0.852679 0.586111 Al
0.669643 0.043155 0.541667 Al
0.169643 0.043155 0.541667 Al
0.645833 0.197917 0.563889 Al
0.145833 0.197917 0.563889 Al
0.836310 0.709821 0.541667 Al
0.336310 0.709821 0.541667 Al
0.812500 0.864583 0.563889 Al
0.312500 0.864583 0.563889 Al
0.455357 0.686012 0.586111 Al
0.955357 0.686012 0.586111 Al
0.502976 0.876488 0.541667 Al
0.002976 0.876488 0.541667 Al
0.479167 0.031250 0.563889 Al
0.979167 0.031250 0.563889 Al
0.645833 0.697917 0.563889 Al
0.145833 0.697917 0.563889 Al
0.622024 0.477679 0.663889 Al
0.122024 0.477679 0.663889 Al
0.455357 0.311012 0.663889 Al
0.955357 0.311012 0.663889 Al
0.502976 0.501488 0.619444 Al
0.002976 0.501488 0.619444 Al
0.622024 0.977679 0.663889 Al
0.122024 0.977679 0.663889 Al
0.669643 0.168155 0.619444 Al
0.169643 0.168155 0.619444 Al
0.645833 0.322917 0.641667 Al
0.145833 0.322917 0.641667 Al
0.360119 0.180060 0.597222 Al
0.860119 0.180060 0.597222 Al
0.336310 0.334821 0.619444 Al
0.836310 0.334821 0.619444 Al
0.312500 0.489583 0.641667 Al
0.812500 0.489583 0.641667 Al
0.455357 0.811012 0.663889 Al
0.955357 0.811012 0.663889 Al
0.502976 0.001488 0.619444 Al
0.002976 0.001488 0.619444 Al
0.479167 0.156250 0.641667 Al
0.979167 0.156250 0.641667 Al
0.669643 0.668155 0.619444 Al
0.169643 0.668155 0.619444 Al
0.645833 0.822917 0.641667 Al
0.145833 0.822917 0.641667 Al
0.360119 0.680060 0.597222 Al
0.860119 0.680060 0.597222 Al
0.336310 0.834821 0.619444 Al
0.836310 0.834821 0.619444 Al
0.312500 0.989583 0.641667 Al
0.812500 0.989583 0.641667 Al
0.479167 0.656250 0.641667 Al
0.979167 0.656250 0.641667 Al
0.741071 0.578869 0.630556 Al
0.241071 0.578869 0.630556 Al
0.574405 0.412202 0.630556 Al
0.074405 0.412202 0.630556 Al
0.550595 0.566964 0.652778 Al
0.050595 0.566964 0.652778 Al
0.741071 0.078869 0.630556 Al
0.241071 0.078869 0.630556 Al
0.717262 0.233631 0.652778 Al
0.217262 0.233631 0.652778 Al
0.764881 0.424107 0.608333 Al
0.264881 0.424107 0.608333 Al
0.407738 0.245536 0.630556 Al
0.907738 0.245536 0.630556 Al
0.383929 0.400298 0.652778 Al
0.883929 0.400298 0.652778 Al
0.431548 0.590774 0.608333 Al
0.931548 0.590774 0.608333 Al
0.574405 0.912202 0.630556 Al
0.074405 0.912202 0.630556 Al
0.550595 0.066964 0.652778 Al
0.050595 0.066964 0.652778 Al
0.598214 0.257440 0.608333 Al
0.098214 0.257440 0.608333 Al
0.717262 0.733631 0.652778 Al
0.217262 0.733631 0.652778 Al
0.764881 0.924107 0.608333 Al
0.264881 0.924107 0.608333 Al
0.407738 0.745536 0.630556 Al
0.907738 0.745536 0.630556 Al
0.383929 0.900298 0.652778 Al
0.883929 0.900298 0.652778 Al
0.431548 0.090774 0.608333 Al
0.931548 0.090774 0.608333 Al
0.598214 0.757440 0.608333 Al
0.098214 0.757440 0.608333 Al
0.645833 0.572917 0.641667 Al
0.145833 0.572917 0.641667 Al
0.479167 0.406250 0.641667 Al
0.979167 0.406250 0.641667 Al
0.455357 0.561012 0.663889 Al
0.955357 0.561012 0.663889 Al
0.645833 0.072917 0.641667 Al
0.145833 0.072917 0.641667 Al
0.622024 0.227679 0.663889 Al
0.122024 0.227679 0.663889 Al
0.669643 0.418155 0.619444 Al
0.169643 0.418155 0.619444 Al
0.312500 0.239583 0.641667 Al
0.812500 0.239583 0.641667 Al
0.288690 0.394345 0.663889 Al
0.788690 0.394345 0.663889 Al
0.336310 0.584821 0.619444 Al
0.836310 0.584821 0.619444 Al
0.479167 0.906250 0.641667 Al
0.979167 0.906250 0.641667 Al
0.455357 0.061012 0.663889 Al
0.955357 0.061012 0.663889 Al
0.502976 0.251488 0.619444 Al
0.002976 0.251488 0.619444 Al
0.622024 0.727679 0.663889 Al
0.122024 0.727679 0.663889 Al
0.669643 0.918155 0.619444 Al
0.169643 0.918155 0.619444 Al
0.312500 0.739583 0.641667 Al
0.812500 0.739583 0.641667 Al
0.360119 0.930060 0.597222 Al
0.860119 0.930060 0.597222 Al
0.336310 0.084821 0.619444 Al
0.836310 0.084821 0.619444 Al
0.502976 0.751488 0.619444 Al
0.002976 0.751488 0.619444 Al
0.717262 0.483631 0.652778 Al
0.217262 0.483631 0.652778 Al
0.550595 0.316964 0.652778 Al
0.050595 0.316964 0.652778 Al
0.598214 0.507440 0.608333 Al
0.098214 0.507440 0.608333 Al
0.717262 0.983631 0.652778 Al
0.217262 0.983631 0.652778 Al
0.764881 0.174107 0.608333 Al
0.264881 0.174107 0.608333 Al
0.741071 0.328869 0.630556 Al
0.241071 0.328869 0.630556 Al
0.383929 0.150298 0.652778 Al
0.883929 0.150298 0.652778 Al
0.431548 0.340774 0.608333 Al
0.931548 0.340774 0.608333 Al
0.407738 0.495536 0.630556 Al
0.907738 0.495536 0.630556 Al
0.550595 0.816964 0.652778 Al
0.050595 0.816964 0.652778 Al
0.598214 0.007440 0.608333 Al
0.098214 0.007440 0.608333 Al
0.574405 0.162202 0.630556 Al
0.074405 0.162202 0.630556 Al
0.764881 0.674107 0.608333 Al
0.264881 0.674107 0.608333 Al
0.741071 0.828869 0.630556 Al
0.241071 0.828869 0.630556 Al
0.383929 0.650298 0.652778 Al
0.883929 0.650298 0.652778 Al
0.431548 0.840774 0.608333 Al
0.931548 0.840774 0.608333 Al
0.407738 0.995536 0.630556 Al
0.907738 0.995536 0.630556 Al
0.574405 0.662202 0.630556 Al
0.074405 0.662202 0.630556 Al
0.550595 0.441964 0.730556 Al
0.050595 0.441964 0.730556 Al
0.383929 0.275298 0.730556 Al
0.883929 0.275298 0.730556 Al
0.431548 0.465774 0.686111 Al
0.931548 0.465774 0.686111 Al
0.550595 0.941964 0.730556 Al
0.050595 0.941964 0.730556 Al
0.598214 0.132440 0.686111 Al
0.098214 0.132440 0.686111 Al
0.574405 0.287202 0.708333 Al
0.074405 0.287202 0.708333 Al
0.288690 0.144345 0.663889 Al
0.788690 0.144345 0.663889 Al
0.264881 0.299107 0.686111 Al
0.764881 0.299107 0.686111 Al
0.241071 0.453869 0.708333 Al
0.741071 0.453869 0.708333 Al
0.383929 0.775298 0.730556 Al
0.883929 0.775298 0.730556 Al
0.431548 0.965774 0.686111 Al
0.931548 0.965774 0.686111 Al
0.407738 0.120536 0.708333 Al
0.907738 0.120536 0.708333 Al
0.598214 0.632440 0.686111 Al
0.098214 0.632440 0.686111 Al
0.574405 0.787202 0.708333 Al
0.074405 0.787202 0.708333 Al
0.288690 0.644345 0.663889 Al
0.788690 0.644345 0.663889 Al
0.264881 0.799107 0.686111 Al
0.764881 0.799107 0.686111 Al
0.241071 0.953869 0.708333 Al
0.741071 0.953869 0.708333 Al
0.407738 0.620536 0.708333 Al
0.907738 0.620536 0.708333 Al
0.669643 0.543155 0.697222 Al
0.169643 0.543155 0.697222 Al
0.502976 0.376488 0.697222 Al
0.002976 0.376488 0.697222 Al
0.479167 0.531250 0.719444 Al
0.979167 0.531250 0.719444 Al
0.669643 0.043155 0.697222 Al
0.169643 0.043155 0.697222 Al
0.645833 0.197917 0.719444 Al
0.145833 0.197917 0.719444 Al
0.693452 0.388393 0.675000 Al
0.193452 0.388393 0.675000 Al
0.336310 0.209821 0.697222 Al
0.836310 0.209821 0.697222 Al
0.312500 0.364583 0.719444 Al
0.812500 0.364583 0.719444 Al
0.360119 0.555060 0.675000 Al
0.860119 0.555060 0.675000 Al
0.502976 0.876488 0.697222 Al
0.002976 0.876488 0.697222 Al
0.479167 0.031250 0.719444 Al
0.979167 0.031250 0.719444 Al
0.526786 0.221726 0.675000 Al
0.026786 0.221726 0.675000 Al
0.645833 0.697917 0.719444 Al
0.145833 0.697917 0.719444 Al
0.693452 0.888393 0.675000 Al
0.193452 0.888393 0.675000 Al
0.336310 0.709821 0.697222 Al
0.836310 0.709821 0.697222 Al
0.312500 0.864583 0.719444 Al
0.812500 0.864583 0.719444 Al
0.360119 0.055060 0.675000 Al
0.860119 0.055060 0.675000 Al
0.526786 0.721726 0.675000 Al
0.026786 0.721726 0.675000 Al
0.574405 0.537202 0.708333 Al
0.074405 0.537202 0.708333 Al
0.407738 0.370536 0.708333 Al
0.907738 0.370536 0.708333 Al
0.383929 0.525298 0.730556 Al
0.883929 0.525298 0.730556 Al
0.574405 0.037202 0.708333 Al
0.074405 0.037202 0.708333 Al
0.550595 0.191964 0.730556 Al
0.050595 0.191964 0.730556 Al
0.598214 0.382440 0.686111 Al
0.098214 0.382440 0.686111 Al
0.241071 0.203869 0.708333 Al
0.741071 0.203869 0.708333 Al
0.217262 0.358631 0.730556 Al
0.717262 0.358631 0.730556 Al
0.264881 0.549107 0.686111 Al
0.764881 0.549107 0.686111 Al
0.407738 0.870536 0.708333 Al
0.907738 0.870536 0.708333 Al
0.383929 0.025298 0.730556 Al
0.883929 0.025298 0.730556 Al
0.431548 0.215774 0.686111 Al
0.931548 0.215774 0.686111 Al
0.550595 0.691964 0.730556 Al
0.050595 0.691964 0.730556 Al
0.598214 0.882440 0.686111 Al
0.098214 0.882440 0.686111 Al
0.241071 0.703869 0.708333 Al
0.741071 0.703869 0.708333 Al
0.288690 0.894345 0.663889 Al
0.788690 0.894345 0.663889 Al
0.264881 0.049107 0.686111 Al
0.764881 0.049107 0.686111 Al
0.431548 0.715774 0.686111 Al
0.931548 0.715774 0.686111 Al
0.645833 0.447917 0.719444 Al
0.145833 0.447917 0.719444 Al
0.479167 0.281250 0.719444 Al
0.979167 0.281250 0.719444 Al
0.526786 0.471726 0.675000 Al
0.026786 0.471726 0.675000 Al
0.645833 0.947917 0.719444 Al
0.145833 0.947917 0.719444 Al
0.693452 0.138393 0.675000 Al
0.193452 0.138393 0.675000 Al
0.669643 0.293155 0.697222 Al
0.169643 0.293155 0.697222 Al
0.312500 0.114583 0.719444 Al
0.812500 0.114583 0.719444 Al
0.360119 0.305060 0.675000 Al
0.860119 0.305060 0.675000 Al
0.336310 0.459821 0.697222 Al
0.836310 0.459821 0.697222 Al
0.479167 0.781250 0.719444 Al
0.979167 0.781250 0.719444 Al
0.526786 0.971726 0.675000 Al
0.026786 0.971726 0.675000 Al
0.502976 0.126488 0.697222 Al