TaSe2_2H_194_Primitive_Cell
1.0
        3.4300000668         0.0000000000         0.0000000000
       -1.7150000334         2.9704671928         0.0000000000
        0.0000000000         0.0000000000        12.7100000381
   Se   Ta
   4    2
Direct
   0.3333333333   0.6666666667   0.115670189
   0.6666666667   0.3333333333   0.884329781
   0.6666666667   0.3333333333   0.615670219
   0.3333333333   0.6666666667   0.384329811
   0.000000000   -0.0000000000   0.250000000
   0.000000000    0.0000000000   0.750000000

