AlGO = Accurate
EDIFF = 1e-06
ENCUT = 500
ISMEAR = 0
ISYM = 0
LCHARG = False
LOPTICS = True
LORBIT = 11
LWAVE = False
METAGGA = Mbj
NBANDS = 36
NEDOS = 5000
NELM = 500
NPAR = 4
PREC = Accurate
SIGMA = 0.1
SYSTEM = Slab
