bulk@mp-149                             
   1.0000000000000000     
     3.3641546557003879   -0.0000000025406257    1.9422954351015094
     1.1213845479862292    3.1717561220910007    1.9422954351015089
    -0.0000000026302491   -0.0000000018598675    3.8845918793144691
   Si
     2
Direct
  0.8750000000000000  0.8750000000000000  0.8750000000000000
  0.1250000000000000  0.1250000000000000  0.1250000000000000

  0.00000000E+00  0.00000000E+00  0.00000000E+00
  0.00000000E+00  0.00000000E+00  0.00000000E+00
