cubic diamond
   5.5
 0.0    0.5     0.5
 0.5    0.0     0.5
 0.5    0.5     0.0
Si
  2
Direct
 -0.125 -0.125 -0.125
  0.125  0.125  0.125
