Automatic kpoint scheme
0
Gamma
14 14 14
