Surf-3_1_1@vac25@size20
1.0
-8.100000 24.300000 0.000000
-8.100000 0.000000 24.300000
43.077272 14.359091 14.359091
Al
864
direct
0.957071 0.123737 0.354701 Al
0.957071 0.623737 0.354701 Al
0.457071 0.123737 0.354701 Al
0.457071 0.623737 0.354701 Al
0.169192 0.002525 0.277778 Al
0.169192 0.502525 0.277778 Al
0.669192 0.002525 0.277778 Al
0.669192 0.502525 0.277778 Al
0.154040 0.154040 0.303419 Al
0.154040 0.654040 0.303419 Al
0.654040 0.154040 0.303419 Al
0.654040 0.654040 0.303419 Al
0.835859 0.835859 0.277778 Al
0.835859 0.335859 0.277778 Al
0.335859 0.835859 0.277778 Al
0.335859 0.335859 0.277778 Al
0.820707 0.987374 0.303419 Al
0.820707 0.487374 0.303419 Al
0.320707 0.987374 0.303419 Al
0.320707 0.487374 0.303419 Al
0.805556 0.138889 0.329060 Al
0.805556 0.638889 0.329060 Al
0.305556 0.138889 0.329060 Al
0.305556 0.638889 0.329060 Al
0.987374 0.820707 0.303419 Al
0.987374 0.320707 0.303419 Al
0.487374 0.820707 0.303419 Al
0.487374 0.320707 0.303419 Al
0.972222 0.972222 0.329060 Al
0.972222 0.472222 0.329060 Al
0.472222 0.972222 0.329060 Al
0.472222 0.472222 0.329060 Al
0.138889 0.805556 0.329060 Al
0.138889 0.305556 0.329060 Al
0.638889 0.805556 0.329060 Al
0.638889 0.305556 0.329060 Al
0.070707 0.237374 0.303419 Al
0.070707 0.737374 0.303419 Al
0.570707 0.237374 0.303419 Al
0.570707 0.737374 0.303419 Al
0.237374 0.070707 0.303419 Al
0.237374 0.570707 0.303419 Al
0.737374 0.070707 0.303419 Al
0.737374 0.570707 0.303419 Al
0.222222 0.222222 0.329060 Al
0.222222 0.722222 0.329060 Al
0.722222 0.222222 0.329060 Al
0.722222 0.722222 0.329060 Al
0.904040 0.904040 0.303419 Al
0.904040 0.404040 0.303419 Al
0.404040 0.904040 0.303419 Al
0.404040 0.404040 0.303419 Al
0.888889 0.055556 0.329060 Al
0.888889 0.555556 0.329060 Al
0.388889 0.055556 0.329060 Al
0.388889 0.555556 0.329060 Al
0.919192 0.252525 0.277778 Al
0.919192 0.752525 0.277778 Al
0.419192 0.252525 0.277778 Al
0.419192 0.752525 0.277778 Al
0.055556 0.888889 0.329060 Al
0.055556 0.388889 0.329060 Al
0.555556 0.888889 0.329060 Al
0.555556 0.388889 0.329060 Al
0.085859 0.085859 0.277778 Al
0.085859 0.585859 0.277778 Al
0.585859 0.085859 0.277778 Al
0.585859 0.585859 0.277778 Al
0.252525 0.919192 0.277778 Al
0.252525 0.419192 0.277778 Al
0.752525 0.919192 0.277778 Al
0.752525 0.419192 0.277778 Al
0.972222 0.222222 0.329060 Al
0.972222 0.722222 0.329060 Al
0.472222 0.222222 0.329060 Al
0.472222 0.722222 0.329060 Al
0.138889 0.055556 0.329060 Al
0.138889 0.555556 0.329060 Al
0.638889 0.055556 0.329060 Al
0.638889 0.555556 0.329060 Al
0.123737 0.207071 0.354701 Al
0.123737 0.707071 0.354701 Al
0.623737 0.207071 0.354701 Al
0.623737 0.707071 0.354701 Al
0.805556 0.888889 0.329060 Al
0.805556 0.388889 0.329060 Al
0.305556 0.888889 0.329060 Al
0.305556 0.388889 0.329060 Al
0.835859 0.085859 0.277778 Al
0.835859 0.585859 0.277778 Al
0.335859 0.085859 0.277778 Al
0.335859 0.585859 0.277778 Al
0.820707 0.237374 0.303419 Al
0.820707 0.737374 0.303419 Al
0.320707 0.237374 0.303419 Al
0.320707 0.737374 0.303419 Al
0.002525 0.919192 0.277778 Al
0.002525 0.419192 0.277778 Al
0.502525 0.919192 0.277778 Al
0.502525 0.419192 0.277778 Al
0.987374 0.070707 0.303419 Al
0.987374 0.570707 0.303419 Al
0.487374 0.070707 0.303419 Al
0.487374 0.570707 0.303419 Al
0.154040 0.904040 0.303419 Al
0.154040 0.404040 0.303419 Al
0.654040 0.904040 0.303419 Al
0.654040 0.404040 0.303419 Al
0.055556 0.138889 0.329060 Al
0.055556 0.638889 0.329060 Al
0.555556 0.138889 0.329060 Al
0.555556 0.638889 0.329060 Al
0.222222 0.972222 0.329060 Al
0.222222 0.472222 0.329060 Al
0.722222 0.972222 0.329060 Al
0.722222 0.472222 0.329060 Al
0.252525 0.169192 0.277778 Al
0.252525 0.669192 0.277778 Al
0.752525 0.169192 0.277778 Al
0.752525 0.669192 0.277778 Al
0.888889 0.805556 0.329060 Al
0.888889 0.305556 0.329060 Al
0.388889 0.805556 0.329060 Al
0.388889 0.305556 0.329060 Al
0.919192 0.002525 0.277778 Al
0.919192 0.502525 0.277778 Al
0.419192 0.002525 0.277778 Al
0.419192 0.502525 0.277778 Al
0.904040 0.154040 0.303419 Al
0.904040 0.654040 0.303419 Al
0.404040 0.154040 0.303419 Al
0.404040 0.654040 0.303419 Al
0.085859 0.835859 0.277778 Al
0.085859 0.335859 0.277778 Al
0.585859 0.835859 0.277778 Al
0.585859 0.335859 0.277778 Al
0.070707 0.987374 0.303419 Al
0.070707 0.487374 0.303419 Al
0.570707 0.987374 0.303419 Al
0.570707 0.487374 0.303419 Al
0.237374 0.820707 0.303419 Al
0.237374 0.320707 0.303419 Al
0.737374 0.820707 0.303419 Al
0.737374 0.320707 0.303419 Al
0.911616 0.078283 0.431624 Al
0.911616 0.578283 0.431624 Al
0.411616 0.078283 0.431624 Al
0.411616 0.578283 0.431624 Al
0.123737 0.957071 0.354701 Al
0.123737 0.457071 0.354701 Al
0.623737 0.957071 0.354701 Al
0.623737 0.457071 0.354701 Al
0.108586 0.108586 0.380342 Al
0.108586 0.608586 0.380342 Al
0.608586 0.108586 0.380342 Al
0.608586 0.608586 0.380342 Al
0.790404 0.790404 0.354701 Al
0.790404 0.290404 0.354701 Al
0.290404 0.790404 0.354701 Al
0.290404 0.290404 0.354701 Al
0.775253 0.941919 0.380342 Al
0.775253 0.441919 0.380342 Al
0.275253 0.941919 0.380342 Al
0.275253 0.441919 0.380342 Al
0.760101 0.093434 0.405983 Al
0.760101 0.593434 0.405983 Al
0.260101 0.093434 0.405983 Al
0.260101 0.593434 0.405983 Al
0.941919 0.775253 0.380342 Al
0.941919 0.275253 0.380342 Al
0.441919 0.775253 0.380342 Al
0.441919 0.275253 0.380342 Al
0.926768 0.926768 0.405983 Al
0.926768 0.426768 0.405983 Al
0.426768 0.926768 0.405983 Al
0.426768 0.426768 0.405983 Al
0.093434 0.760101 0.405983 Al
0.093434 0.260101 0.405983 Al
0.593434 0.760101 0.405983 Al
0.593434 0.260101 0.405983 Al
0.025253 0.191919 0.380342 Al
0.025253 0.691919 0.380342 Al
0.525253 0.191919 0.380342 Al
0.525253 0.691919 0.380342 Al
0.191919 0.025253 0.380342 Al
0.191919 0.525253 0.380342 Al
0.691919 0.025253 0.380342 Al
0.691919 0.525253 0.380342 Al
0.176768 0.176768 0.405983 Al
0.176768 0.676768 0.405983 Al
0.676768 0.176768 0.405983 Al
0.676768 0.676768 0.405983 Al
0.858586 0.858586 0.380342 Al
0.858586 0.358586 0.380342 Al
0.358586 0.858586 0.380342 Al
0.358586 0.358586 0.380342 Al
0.843434 0.010101 0.405983 Al
0.843434 0.510101 0.405983 Al
0.343434 0.010101 0.405983 Al
0.343434 0.510101 0.405983 Al
0.873737 0.207071 0.354701 Al
0.873737 0.707071 0.354701 Al
0.373737 0.207071 0.354701 Al
0.373737 0.707071 0.354701 Al
0.010101 0.843434 0.405983 Al
0.010101 0.343434 0.405983 Al
0.510101 0.843434 0.405983 Al
0.510101 0.343434 0.405983 Al
0.040404 0.040404 0.354701 Al
0.040404 0.540404 0.354701 Al
0.540404 0.040404 0.354701 Al
0.540404 0.540404 0.354701 Al
0.207071 0.873737 0.354701 Al
0.207071 0.373737 0.354701 Al
0.707071 0.873737 0.354701 Al
0.707071 0.373737 0.354701 Al
0.926768 0.176768 0.405983 Al
0.926768 0.676768 0.405983 Al
0.426768 0.176768 0.405983 Al
0.426768 0.676768 0.405983 Al
0.093434 0.010101 0.405983 Al
0.093434 0.510101 0.405983 Al
0.593434 0.010101 0.405983 Al
0.593434 0.510101 0.405983 Al
0.078283 0.161616 0.431624 Al
0.078283 0.661616 0.431624 Al
0.578283 0.161616 0.431624 Al
0.578283 0.661616 0.431624 Al
0.760101 0.843434 0.405983 Al
0.760101 0.343434 0.405983 Al
0.260101 0.843434 0.405983 Al
0.260101 0.343434 0.405983 Al
0.790404 0.040404 0.354701 Al
0.790404 0.540404 0.354701 Al
0.290404 0.040404 0.354701 Al
0.290404 0.540404 0.354701 Al
0.775253 0.191919 0.380342 Al
0.775253 0.691919 0.380342 Al
0.275253 0.191919 0.380342 Al
0.275253 0.691919 0.380342 Al
0.957071 0.873737 0.354701 Al
0.957071 0.373737 0.354701 Al
0.457071 0.873737 0.354701 Al
0.457071 0.373737 0.354701 Al
0.941919 0.025253 0.380342 Al
0.941919 0.525253 0.380342 Al
0.441919 0.025253 0.380342 Al
0.441919 0.525253 0.380342 Al
0.108586 0.858586 0.380342 Al
0.108586 0.358586 0.380342 Al
0.608586 0.858586 0.380342 Al
0.608586 0.358586 0.380342 Al
0.010101 0.093434 0.405983 Al
0.010101 0.593434 0.405983 Al
0.510101 0.093434 0.405983 Al
0.510101 0.593434 0.405983 Al
0.176768 0.926768 0.405983 Al
0.176768 0.426768 0.405983 Al
0.676768 0.926768 0.405983 Al
0.676768 0.426768 0.405983 Al
0.207071 0.123737 0.354701 Al
0.207071 0.623737 0.354701 Al
0.707071 0.123737 0.354701 Al
0.707071 0.623737 0.354701 Al
0.843434 0.760101 0.405983 Al
0.843434 0.260101 0.405983 Al
0.343434 0.760101 0.405983 Al
0.343434 0.260101 0.405983 Al
0.873737 0.957071 0.354701 Al
0.873737 0.457071 0.354701 Al
0.373737 0.957071 0.354701 Al
0.373737 0.457071 0.354701 Al
0.858586 0.108586 0.380342 Al
0.858586 0.608586 0.380342 Al
0.358586 0.108586 0.380342 Al
0.358586 0.608586 0.380342 Al
0.040404 0.790404 0.354701 Al
0.040404 0.290404 0.354701 Al
0.540404 0.790404 0.354701 Al
0.540404 0.290404 0.354701 Al
0.025253 0.941919 0.380342 Al
0.025253 0.441919 0.380342 Al
0.525253 0.941919 0.380342 Al
0.525253 0.441919 0.380342 Al
0.191919 0.775253 0.380342 Al
0.191919 0.275253 0.380342 Al
0.691919 0.775253 0.380342 Al
0.691919 0.275253 0.380342 Al
0.866162 0.032828 0.508547 Al
0.866162 0.532828 0.508547 Al
0.366162 0.032828 0.508547 Al
0.366162 0.532828 0.508547 Al
0.078283 0.911616 0.431624 Al
0.078283 0.411616 0.431624 Al
0.578283 0.911616 0.431624 Al
0.578283 0.411616 0.431624 Al
0.063131 0.063131 0.457265 Al
0.063131 0.563131 0.457265 Al
0.563131 0.063131 0.457265 Al
0.563131 0.563131 0.457265 Al
0.744949 0.744949 0.431624 Al
0.744949 0.244949 0.431624 Al
0.244949 0.744949 0.431624 Al
0.244949 0.244949 0.431624 Al
0.729798 0.896465 0.457265 Al
0.729798 0.396465 0.457265 Al
0.229798 0.896465 0.457265 Al
0.229798 0.396465 0.457265 Al
0.714646 0.047980 0.482906 Al
0.714646 0.547980 0.482906 Al
0.214646 0.047980 0.482906 Al
0.214646 0.547980 0.482906 Al
0.896465 0.729798 0.457265 Al
0.896465 0.229798 0.457265 Al
0.396465 0.729798 0.457265 Al
0.396465 0.229798 0.457265 Al
0.881313 0.881313 0.482906 Al
0.881313 0.381313 0.482906 Al
0.381313 0.881313 0.482906 Al
0.381313 0.381313 0.482906 Al
0.047980 0.714646 0.482906 Al
0.047980 0.214646 0.482906 Al
0.547980 0.714646 0.482906 Al
0.547980 0.214646 0.482906 Al
0.979798 0.146465 0.457265 Al
0.979798 0.646465 0.457265 Al
0.479798 0.146465 0.457265 Al
0.479798 0.646465 0.457265 Al
0.146465 0.979798 0.457265 Al
0.146465 0.479798 0.457265 Al
0.646465 0.979798 0.457265 Al
0.646465 0.479798 0.457265 Al
0.131313 0.131313 0.482906 Al
0.131313 0.631313 0.482906 Al
0.631313 0.131313 0.482906 Al
0.631313 0.631313 0.482906 Al
0.813131 0.813131 0.457265 Al
0.813131 0.313131 0.457265 Al
0.313131 0.813131 0.457265 Al
0.313131 0.313131 0.457265 Al
0.797980 0.964646 0.482906 Al
0.797980 0.464646 0.482906 Al
0.297980 0.964646 0.482906 Al
0.297980 0.464646 0.482906 Al
0.828283 0.161616 0.431624 Al
0.828283 0.661616 0.431624 Al
0.328283 0.161616 0.431624 Al
0.328283 0.661616 0.431624 Al
0.964646 0.797980 0.482906 Al
0.964646 0.297980 0.482906 Al
0.464646 0.797980 0.482906 Al
0.464646 0.297980 0.482906 Al
0.994949 0.994949 0.431624 Al
0.994949 0.494949 0.431624 Al
0.494949 0.994949 0.431624 Al
0.494949 0.494949 0.431624 Al
0.161616 0.828283 0.431624 Al
0.161616 0.328283 0.431624 Al
0.661616 0.828283 0.431624 Al
0.661616 0.328283 0.431624 Al
0.881313 0.131313 0.482906 Al
0.881313 0.631313 0.482906 Al
0.381313 0.131313 0.482906 Al
0.381313 0.631313 0.482906 Al
0.047980 0.964646 0.482906 Al
0.047980 0.464646 0.482906 Al
0.547980 0.964646 0.482906 Al
0.547980 0.464646 0.482906 Al
0.032828 0.116162 0.508547 Al
0.032828 0.616162 0.508547 Al
0.532828 0.116162 0.508547 Al
0.532828 0.616162 0.508547 Al
0.714646 0.797980 0.482906 Al
0.714646 0.297980 0.482906 Al
0.214646 0.797980 0.482906 Al
0.214646 0.297980 0.482906 Al
0.744949 0.994949 0.431624 Al
0.744949 0.494949 0.431624 Al
0.244949 0.994949 0.431624 Al
0.244949 0.494949 0.431624 Al
0.729798 0.146465 0.457265 Al
0.729798 0.646465 0.457265 Al
0.229798 0.146465 0.457265 Al
0.229798 0.646465 0.457265 Al
0.911616 0.828283 0.431624 Al
0.911616 0.328283 0.431624 Al
0.411616 0.828283 0.431624 Al
0.411616 0.328283 0.431624 Al
0.896465 0.979798 0.457265 Al
0.896465 0.479798 0.457265 Al
0.396465 0.979798 0.457265 Al
0.396465 0.479798 0.457265 Al
0.063131 0.813131 0.457265 Al
0.063131 0.313131 0.457265 Al
0.563131 0.813131 0.457265 Al
0.563131 0.313131 0.457265 Al
0.964646 0.047980 0.482906 Al
0.964646 0.547980 0.482906 Al
0.464646 0.047980 0.482906 Al
0.464646 0.547980 0.482906 Al
0.131313 0.881313 0.482906 Al
0.131313 0.381313 0.482906 Al
0.631313 0.881313 0.482906 Al
0.631313 0.381313 0.482906 Al
0.161616 0.078283 0.431624 Al
0.161616 0.578283 0.431624 Al
0.661616 0.078283 0.431624 Al
0.661616 0.578283 0.431624 Al
0.797980 0.714646 0.482906 Al
0.797980 0.214646 0.482906 Al
0.297980 0.714646 0.482906 Al
0.297980 0.214646 0.482906 Al
0.828283 0.911616 0.431624 Al
0.828283 0.411616 0.431624 Al
0.328283 0.911616 0.431624 Al
0.328283 0.411616 0.431624 Al
0.813131 0.063131 0.457265 Al
0.813131 0.563131 0.457265 Al
0.313131 0.063131 0.457265 Al
0.313131 0.563131 0.457265 Al
0.994949 0.744949 0.431624 Al
0.994949 0.244949 0.431624 Al
0.494949 0.744949 0.431624 Al
0.494949 0.244949 0.431624 Al
0.979798 0.896465 0.457265 Al
0.979798 0.396465 0.457265 Al
0.479798 0.896465 0.457265 Al
0.479798 0.396465 0.457265 Al
0.146465 0.729798 0.457265 Al
0.146465 0.229798 0.457265 Al
0.646465 0.729798 0.457265 Al
0.646465 0.229798 0.457265 Al
0.820707 0.987374 0.585470 Al
0.820707 0.487374 0.585470 Al
0.320707 0.987374 0.585470 Al
0.320707 0.487374 0.585470 Al
0.032828 0.866162 0.508547 Al
0.032828 0.366162 0.508547 Al
0.532828 0.866162 0.508547 Al
0.532828 0.366162 0.508547 Al
0.017677 0.017677 0.534188 Al
0.017677 0.517677 0.534188 Al
0.517677 0.017677 0.534188 Al
0.517677 0.517677 0.534188 Al
0.699495 0.699495 0.508547 Al
0.699495 0.199495 0.508547 Al
0.199495 0.699495 0.508547 Al
0.199495 0.199495 0.508547 Al
0.684343 0.851010 0.534188 Al
0.684343 0.351010 0.534188 Al
0.184343 0.851010 0.534188 Al
0.184343 0.351010 0.534188 Al
0.669192 0.002525 0.559829 Al
0.669192 0.502525 0.559829 Al
0.169192 0.002525 0.559829 Al
0.169192 0.502525 0.559829 Al
0.851010 0.684343 0.534188 Al
0.851010 0.184343 0.534188 Al
0.351010 0.684343 0.534188 Al
0.351010 0.184343 0.534188 Al
0.835859 0.835859 0.559829 Al
0.835859 0.335859 0.559829 Al
0.335859 0.835859 0.559829 Al
0.335859 0.335859 0.559829 Al
0.002525 0.669192 0.559829 Al
0.002525 0.169192 0.559829 Al
0.502525 0.669192 0.559829 Al
0.502525 0.169192 0.559829 Al
0.934343 0.101010 0.534188 Al
0.934343 0.601010 0.534188 Al
0.434343 0.101010 0.534188 Al
0.434343 0.601010 0.534188 Al
0.101010 0.934343 0.534188 Al
0.101010 0.434343 0.534188 Al
0.601010 0.934343 0.534188 Al
0.601010 0.434343 0.534188 Al
0.085859 0.085859 0.559829 Al
0.085859 0.585859 0.559829 Al
0.585859 0.085859 0.559829 Al
0.585859 0.585859 0.559829 Al
0.767677 0.767677 0.534188 Al
0.767677 0.267677 0.534188 Al
0.267677 0.767677 0.534188 Al
0.267677 0.267677 0.534188 Al
0.752525 0.919192 0.559829 Al
0.752525 0.419192 0.559829 Al
0.252525 0.919192 0.559829 Al
0.252525 0.419192 0.559829 Al
0.782828 0.116162 0.508547 Al
0.782828 0.616162 0.508547 Al
0.282828 0.116162 0.508547 Al
0.282828 0.616162 0.508547 Al
0.919192 0.752525 0.559829 Al
0.919192 0.252525 0.559829 Al
0.419192 0.752525 0.559829 Al
0.419192 0.252525 0.559829 Al
0.949495 0.949495 0.508547 Al
0.949495 0.449495 0.508547 Al
0.449495 0.949495 0.508547 Al
0.449495 0.449495 0.508547 Al
0.116162 0.782828 0.508547 Al
0.116162 0.282828 0.508547 Al
0.616162 0.782828 0.508547 Al
0.616162 0.282828 0.508547 Al
0.835859 0.085859 0.559829 Al
0.835859 0.585859 0.559829 Al
0.335859 0.085859 0.559829 Al
0.335859 0.585859 0.559829 Al
0.002525 0.919192 0.559829 Al
0.002525 0.419192 0.559829 Al
0.502525 0.919192 0.559829 Al
0.502525 0.419192 0.559829 Al
0.987374 0.070707 0.585470 Al
0.987374 0.570707 0.585470 Al
0.487374 0.070707 0.585470 Al
0.487374 0.570707 0.585470 Al
0.669192 0.752525 0.559829 Al
0.669192 0.252525 0.559829 Al
0.169192 0.752525 0.559829 Al
0.169192 0.252525 0.559829 Al
0.699495 0.949495 0.508547 Al
0.699495 0.449495 0.508547 Al
0.199495 0.949495 0.508547 Al
0.199495 0.449495 0.508547 Al
0.684343 0.101010 0.534188 Al
0.684343 0.601010 0.534188 Al
0.184343 0.101010 0.534188 Al
0.184343 0.601010 0.534188 Al
0.866162 0.782828 0.508547 Al
0.866162 0.282828 0.508547 Al
0.366162 0.782828 0.508547 Al
0.366162 0.282828 0.508547 Al
0.851010 0.934343 0.534188 Al
0.851010 0.434343 0.534188 Al
0.351010 0.934343 0.534188 Al
0.351010 0.434343 0.534188 Al
0.017677 0.767677 0.534188 Al
0.017677 0.267677 0.534188 Al
0.517677 0.767677 0.534188 Al
0.517677 0.267677 0.534188 Al
0.919192 0.002525 0.559829 Al
0.919192 0.502525 0.559829 Al
0.419192 0.002525 0.559829 Al
0.419192 0.502525 0.559829 Al
0.085859 0.835859 0.559829 Al
0.085859 0.335859 0.559829 Al
0.585859 0.835859 0.559829 Al
0.585859 0.335859 0.559829 Al
0.116162 0.032828 0.508547 Al
0.116162 0.532828 0.508547 Al
0.616162 0.032828 0.508547 Al
0.616162 0.532828 0.508547 Al
0.752525 0.669192 0.559829 Al
0.752525 0.169192 0.559829 Al
0.252525 0.669192 0.559829 Al
0.252525 0.169192 0.559829 Al
0.782828 0.866162 0.508547 Al
0.782828 0.366162 0.508547 Al
0.282828 0.866162 0.508547 Al
0.282828 0.366162 0.508547 Al
0.767677 0.017677 0.534188 Al
0.767677 0.517677 0.534188 Al
0.267677 0.017677 0.534188 Al
0.267677 0.517677 0.534188 Al
0.949495 0.699495 0.508547 Al
0.949495 0.199495 0.508547 Al
0.449495 0.699495 0.508547 Al
0.449495 0.199495 0.508547 Al
0.934343 0.851010 0.534188 Al
0.934343 0.351010 0.534188 Al
0.434343 0.851010 0.534188 Al
0.434343 0.351010 0.534188 Al
0.101010 0.684343 0.534188 Al
0.101010 0.184343 0.534188 Al
0.601010 0.684343 0.534188 Al
0.601010 0.184343 0.534188 Al
0.775253 0.941919 0.662393 Al
0.775253 0.441919 0.662393 Al
0.275253 0.941919 0.662393 Al
0.275253 0.441919 0.662393 Al
0.987374 0.820707 0.585470 Al
0.987374 0.320707 0.585470 Al
0.487374 0.820707 0.585470 Al
0.487374 0.320707 0.585470 Al
0.972222 0.972222 0.611111 Al
0.972222 0.472222 0.611111 Al
0.472222 0.972222 0.611111 Al
0.472222 0.472222 0.611111 Al
0.654040 0.654040 0.585470 Al
0.654040 0.154040 0.585470 Al
0.154040 0.654040 0.585470 Al
0.154040 0.154040 0.585470 Al
0.638889 0.805556 0.611111 Al
0.638889 0.305556 0.611111 Al
0.138889 0.805556 0.611111 Al
0.138889 0.305556 0.611111 Al
0.623737 0.957071 0.636752 Al
0.623737 0.457071 0.636752 Al
0.123737 0.957071 0.636752 Al
0.123737 0.457071 0.636752 Al
0.805556 0.638889 0.611111 Al
0.805556 0.138889 0.611111 Al
0.305556 0.638889 0.611111 Al
0.305556 0.138889 0.611111 Al
0.790404 0.790404 0.636752 Al
0.790404 0.290404 0.636752 Al
0.290404 0.790404 0.636752 Al
0.290404 0.290404 0.636752 Al
0.957071 0.623737 0.636752 Al
0.957071 0.123737 0.636752 Al
0.457071 0.623737 0.636752 Al
0.457071 0.123737 0.636752 Al
0.888889 0.055556 0.611111 Al
0.888889 0.555556 0.611111 Al
0.388889 0.055556 0.611111 Al
0.388889 0.555556 0.611111 Al
0.055556 0.888889 0.611111 Al
0.055556 0.388889 0.611111 Al
0.555556 0.888889 0.611111 Al
0.555556 0.388889 0.611111 Al
0.040404 0.040404 0.636752 Al
0.040404 0.540404 0.636752 Al
0.540404 0.040404 0.636752 Al
0.540404 0.540404 0.636752 Al
0.722222 0.722222 0.611111 Al
0.722222 0.222222 0.611111 Al
0.222222 0.722222 0.611111 Al
0.222222 0.222222 0.611111 Al
0.707071 0.873737 0.636752 Al
0.707071 0.373737 0.636752 Al
0.207071 0.873737 0.636752 Al
0.207071 0.373737 0.636752 Al
0.737374 0.070707 0.585470 Al
0.737374 0.570707 0.585470 Al
0.237374 0.070707 0.585470 Al
0.237374 0.570707 0.585470 Al
0.873737 0.707071 0.636752 Al
0.873737 0.207071 0.636752 Al
0.373737 0.707071 0.636752 Al
0.373737 0.207071 0.636752 Al
0.904040 0.904040 0.585470 Al
0.904040 0.404040 0.585470 Al
0.404040 0.904040 0.585470 Al
0.404040 0.404040 0.585470 Al
0.070707 0.737374 0.585470 Al
0.070707 0.237374 0.585470 Al
0.570707 0.737374 0.585470 Al
0.570707 0.237374 0.585470 Al
0.790404 0.040404 0.636752 Al
0.790404 0.540404 0.636752 Al
0.290404 0.040404 0.636752 Al
0.290404 0.540404 0.636752 Al
0.957071 0.873737 0.636752 Al
0.957071 0.373737 0.636752 Al
0.457071 0.873737 0.636752 Al
0.457071 0.373737 0.636752 Al
0.941919 0.025253 0.662393 Al
0.941919 0.525253 0.662393 Al
0.441919 0.025253 0.662393 Al
0.441919 0.525253 0.662393 Al
0.623737 0.707071 0.636752 Al
0.623737 0.207071 0.636752 Al
0.123737 0.707071 0.636752 Al
0.123737 0.207071 0.636752 Al
0.654040 0.904040 0.585470 Al
0.654040 0.404040 0.585470 Al
0.154040 0.904040 0.585470 Al
0.154040 0.404040 0.585470 Al
0.638889 0.055556 0.611111 Al
0.638889 0.555556 0.611111 Al
0.138889 0.055556 0.611111 Al
0.138889 0.555556 0.611111 Al
0.820707 0.737374 0.585470 Al
0.820707 0.237374 0.585470 Al
0.320707 0.737374 0.585470 Al
0.320707 0.237374 0.585470 Al
0.805556 0.888889 0.611111 Al
0.805556 0.388889 0.611111 Al
0.305556 0.888889 0.611111 Al
0.305556 0.388889 0.611111 Al
0.972222 0.722222 0.611111 Al
0.972222 0.222222 0.611111 Al
0.472222 0.722222 0.611111 Al
0.472222 0.222222 0.611111 Al
0.873737 0.957071 0.636752 Al
0.873737 0.457071 0.636752 Al
0.373737 0.957071 0.636752 Al
0.373737 0.457071 0.636752 Al
0.040404 0.790404 0.636752 Al
0.040404 0.290404 0.636752 Al
0.540404 0.790404 0.636752 Al
0.540404 0.290404 0.636752 Al
0.070707 0.987374 0.585470 Al
0.070707 0.487374 0.585470 Al
0.570707 0.987374 0.585470 Al
0.570707 0.487374 0.585470 Al
0.707071 0.623737 0.636752 Al
0.707071 0.123737 0.636752 Al
0.207071 0.623737 0.636752 Al
0.207071 0.123737 0.636752 Al
0.737374 0.820707 0.585470 Al
0.737374 0.320707 0.585470 Al
0.237374 0.820707 0.585470 Al
0.237374 0.320707 0.585470 Al
0.722222 0.972222 0.611111 Al
0.722222 0.472222 0.611111 Al
0.222222 0.972222 0.611111 Al
0.222222 0.472222 0.611111 Al
0.904040 0.654040 0.585470 Al
0.904040 0.154040 0.585470 Al
0.404040 0.654040 0.585470 Al
0.404040 0.154040 0.585470 Al
0.888889 0.805556 0.611111 Al
0.888889 0.305556 0.611111 Al
0.388889 0.805556 0.611111 Al
0.388889 0.305556 0.611111 Al
0.055556 0.638889 0.611111 Al
0.055556 0.138889 0.611111 Al
0.555556 0.638889 0.611111 Al
0.555556 0.138889 0.611111 Al
0.729798 0.896465 0.739316 Al
0.729798 0.396465 0.739316 Al
0.229798 0.896465 0.739316 Al
0.229798 0.396465 0.739316 Al
0.941919 0.775253 0.662393 Al
0.941919 0.275253 0.662393 Al
0.441919 0.775253 0.662393 Al
0.441919 0.275253 0.662393 Al
0.926768 0.926768 0.688034 Al
0.926768 0.426768 0.688034 Al
0.426768 0.926768 0.688034 Al
0.426768 0.426768 0.688034 Al
0.608586 0.608586 0.662393 Al
0.608586 0.108586 0.662393 Al
0.108586 0.608586 0.662393 Al
0.108586 0.108586 0.662393 Al
0.593434 0.760101 0.688034 Al
0.593434 0.260101 0.688034 Al
0.093434 0.760101 0.688034 Al
0.093434 0.260101 0.688034 Al
0.578283 0.911616 0.713675 Al
0.578283 0.411616 0.713675 Al
0.078283 0.911616 0.713675 Al
0.078283 0.411616 0.713675 Al
0.760101 0.593434 0.688034 Al
0.760101 0.093434 0.688034 Al
0.260101 0.593434 0.688034 Al
0.260101 0.093434 0.688034 Al
0.744949 0.744949 0.713675 Al
0.744949 0.244949 0.713675 Al
0.244949 0.744949 0.713675 Al
0.244949 0.244949 0.713675 Al
0.911616 0.578283 0.713675 Al
0.911616 0.078283 0.713675 Al
0.411616 0.578283 0.713675 Al
0.411616 0.078283 0.713675 Al
0.843434 0.010101 0.688034 Al
0.843434 0.510101 0.688034 Al
0.343434 0.010101 0.688034 Al
0.343434 0.510101 0.688034 Al
0.010101 0.843434 0.688034 Al
0.010101 0.343434 0.688034 Al
0.510101 0.843434 0.688034 Al
0.510101 0.343434 0.688034 Al
0.994949 0.994949 0.713675 Al
0.994949 0.494949 0.713675 Al
0.494949 0.994949 0.713675 Al
0.494949 0.494949 0.713675 Al
0.676768 0.676768 0.688034 Al
0.676768 0.176768 0.688034 Al
0.176768 0.676768 0.688034 Al
0.176768 0.176768 0.688034 Al
0.661616 0.828283 0.713675 Al
0.661616 0.328283 0.713675 Al
0.161616 0.828283 0.713675 Al
0.161616 0.328283 0.713675 Al
0.691919 0.025253 0.662393 Al
0.691919 0.525253 0.662393 Al
0.191919 0.025253 0.662393 Al
0.191919 0.525253 0.662393 Al
0.828283 0.661616 0.713675 Al
0.828283 0.161616 0.713675 Al
0.328283 0.661616 0.713675 Al
0.328283 0.161616 0.713675 Al
0.858586 0.858586 0.662393 Al
0.858586 0.358586 0.662393 Al
0.358586 0.858586 0.662393 Al
0.358586 0.358586 0.662393 Al
0.025253 0.691919 0.662393 Al
0.025253 0.191919 0.662393 Al
0.525253 0.691919 0.662393 Al
0.525253 0.191919 0.662393 Al
0.744949 0.994949 0.713675 Al
0.744949 0.494949 0.713675 Al
0.244949 0.994949 0.713675 Al
0.244949 0.494949 0.713675 Al
0.911616 0.828283 0.713675 Al
0.911616 0.328283 0.713675 Al
0.411616 0.828283 0.713675 Al
0.411616 0.328283 0.713675 Al
0.896465 0.979798 0.739316 Al
0.896465 0.479798 0.739316 Al
0.396465 0.979798 0.739316 Al
0.396465 0.479798 0.739316 Al
0.578283 0.661616 0.713675 Al
0.578283 0.161616 0.713675 Al
0.078283 0.661616 0.713675 Al
0.078283 0.161616 0.713675 Al
0.608586 0.858586 0.662393 Al
0.608586 0.358586 0.662393 Al
0.108586 0.858586 0.662393 Al
0.108586 0.358586 0.662393 Al
0.593434 0.010101 0.688034 Al
0.593434 0.510101 0.688034 Al
0.093434 0.010101 0.688034 Al
0.093434 0.510101 0.688034 Al
0.775253 0.691919 0.662393 Al
0.775253 0.191919 0.662393 Al
0.275253 0.691919 0.662393 Al
0.275253 0.191919 0.662393 Al
0.760101 0.843434 0.688034 Al
0.760101 0.343434 0.688034 Al
0.260101 0.843434 0.688034 Al
0.260101 0.343434 0.688034 Al
0.926768 0.676768 0.688034 Al
0.926768 0.176768 0.688034 Al
0.426768 0.676768 0.688034 Al
0.426768 0.176768 0.688034 Al
0.828283 0.911616 0.713675 Al
0.828283 0.411616 0.713675 Al
0.328283 0.911616 0.713675 Al
0.328283 0.411616 0.713675 Al
0.994949 0.744949 0.713675 Al
0.994949 0.244949 0.713675 Al
0.494949 0.744949 0.713675 Al
0.494949 0.244949 0.713675 Al
0.025253 0.941919 0.662393 Al
0.025253 0.441919 0.662393 Al
0.525253 0.941919 0.662393 Al
0.525253 0.441919 0.662393 Al
0.661616 0.578283 0.713675 Al
0.661616 0.078283 0.713675 Al
0.161616 0.578283 0.713675 Al
0.161616 0.078283 0.713675 Al
0.691919 0.775253 0.662393 Al
0.691919 0.275253 0.662393 Al
0.191919 0.775253 0.662393 Al
0.191919 0.275253 0.662393 Al
0.676768 0.926768 0.688034 Al
0.676768 0.426768 0.688034 Al
0.176768 0.926768 0.688034 Al
0.176768 0.426768 0.688034 Al
0.858586 0.608586 0.662393 Al
0.858586 0.108586 0.662393 Al
0.358586 0.608586 0.662393 Al
0.358586 0.108586 0.662393 Al
0.843434 0.760101 0.688034 Al
0.843434 0.260101 0.688034 Al
0.343434 0.760101 0.688034 Al
0.343434 0.260101 0.688034 Al
0.010101 0.593434 0.688034 Al
0.010101 0.093434 0.688034 Al
0.510101 0.593434 0.688034 Al
0.510101 0.093434 0.688034 Al
