Surf-3_2_2@vac25@size20
1.0
-16.200000 24.300000 0.000000
-16.200000 0.000000 24.300000
34.305882 22.870588 22.870588
Al
1008
direct
0.846405 0.013072 0.340278 Al
0.846405 0.513072 0.340278 Al
0.346405 0.013072 0.340278 Al
0.346405 0.513072 0.340278 Al
0.013072 0.846405 0.340278 Al
0.013072 0.346405 0.340278 Al
0.513072 0.846405 0.340278 Al
0.513072 0.346405 0.340278 Al
0.032680 0.032680 0.319444 Al
0.032680 0.532680 0.319444 Al
0.532680 0.032680 0.319444 Al
0.532680 0.532680 0.319444 Al
0.718954 0.052288 0.298611 Al
0.718954 0.552288 0.298611 Al
0.218954 0.052288 0.298611 Al
0.218954 0.552288 0.298611 Al
0.885621 0.885621 0.298611 Al
0.885621 0.385621 0.298611 Al
0.385621 0.885621 0.298611 Al
0.385621 0.385621 0.298611 Al
0.052288 0.718954 0.298611 Al
0.052288 0.218954 0.298611 Al
0.552288 0.718954 0.298611 Al
0.552288 0.218954 0.298611 Al
0.738562 0.738562 0.277778 Al
0.738562 0.238562 0.277778 Al
0.238562 0.738562 0.277778 Al
0.238562 0.238562 0.277778 Al
0.699346 0.866013 0.319444 Al
0.699346 0.366013 0.319444 Al
0.199346 0.866013 0.319444 Al
0.199346 0.366013 0.319444 Al
0.866013 0.699346 0.319444 Al
0.866013 0.199346 0.319444 Al
0.366013 0.699346 0.319444 Al
0.366013 0.199346 0.319444 Al
0.949346 0.116013 0.319444 Al
0.949346 0.616013 0.319444 Al
0.449346 0.116013 0.319444 Al
0.449346 0.616013 0.319444 Al
0.116013 0.949346 0.319444 Al
0.116013 0.449346 0.319444 Al
0.616013 0.949346 0.319444 Al
0.616013 0.449346 0.319444 Al
0.135621 0.135621 0.298611 Al
0.135621 0.635621 0.298611 Al
0.635621 0.135621 0.298611 Al
0.635621 0.635621 0.298611 Al
0.763072 0.096405 0.340278 Al
0.763072 0.596405 0.340278 Al
0.263072 0.096405 0.340278 Al
0.263072 0.596405 0.340278 Al
0.929739 0.929739 0.340278 Al
0.929739 0.429739 0.340278 Al
0.429739 0.929739 0.340278 Al
0.429739 0.429739 0.340278 Al
0.096405 0.763072 0.340278 Al
0.096405 0.263072 0.340278 Al
0.596405 0.763072 0.340278 Al
0.596405 0.263072 0.340278 Al
0.782680 0.782680 0.319444 Al
0.782680 0.282680 0.319444 Al
0.282680 0.782680 0.319444 Al
0.282680 0.282680 0.319444 Al
0.802288 0.968954 0.298611 Al
0.802288 0.468954 0.298611 Al
0.302288 0.968954 0.298611 Al
0.302288 0.468954 0.298611 Al
0.968954 0.802288 0.298611 Al
0.968954 0.302288 0.298611 Al
0.468954 0.802288 0.298611 Al
0.468954 0.302288 0.298611 Al
0.856209 0.106209 0.329861 Al
0.856209 0.606209 0.329861 Al
0.356209 0.106209 0.329861 Al
0.356209 0.606209 0.329861 Al
0.022876 0.939542 0.329861 Al
0.022876 0.439542 0.329861 Al
0.522876 0.939542 0.329861 Al
0.522876 0.439542 0.329861 Al
0.042484 0.125817 0.309028 Al
0.042484 0.625817 0.309028 Al
0.542484 0.125817 0.309028 Al
0.542484 0.625817 0.309028 Al
0.728758 0.145425 0.288194 Al
0.728758 0.645425 0.288194 Al
0.228758 0.145425 0.288194 Al
0.228758 0.645425 0.288194 Al
0.895425 0.978758 0.288194 Al
0.895425 0.478758 0.288194 Al
0.395425 0.978758 0.288194 Al
0.395425 0.478758 0.288194 Al
0.062092 0.812092 0.288194 Al
0.062092 0.312092 0.288194 Al
0.562092 0.812092 0.288194 Al
0.562092 0.312092 0.288194 Al
0.689542 0.772876 0.329861 Al
0.689542 0.272876 0.329861 Al
0.189542 0.772876 0.329861 Al
0.189542 0.272876 0.329861 Al
0.709150 0.959150 0.309028 Al
0.709150 0.459150 0.309028 Al
0.209150 0.959150 0.309028 Al
0.209150 0.459150 0.309028 Al
0.875817 0.792484 0.309028 Al
0.875817 0.292484 0.309028 Al
0.375817 0.792484 0.309028 Al
0.375817 0.292484 0.309028 Al
0.939542 0.022876 0.329861 Al
0.939542 0.522876 0.329861 Al
0.439542 0.022876 0.329861 Al
0.439542 0.522876 0.329861 Al
0.106209 0.856209 0.329861 Al
0.106209 0.356209 0.329861 Al
0.606209 0.856209 0.329861 Al
0.606209 0.356209 0.329861 Al
0.125817 0.042484 0.309028 Al
0.125817 0.542484 0.309028 Al
0.625817 0.042484 0.309028 Al
0.625817 0.542484 0.309028 Al
0.812092 0.062092 0.288194 Al
0.812092 0.562092 0.288194 Al
0.312092 0.062092 0.288194 Al
0.312092 0.562092 0.288194 Al
0.978758 0.895425 0.288194 Al
0.978758 0.395425 0.288194 Al
0.478758 0.895425 0.288194 Al
0.478758 0.395425 0.288194 Al
0.145425 0.728758 0.288194 Al
0.145425 0.228758 0.288194 Al
0.645425 0.728758 0.288194 Al
0.645425 0.228758 0.288194 Al
0.772876 0.689542 0.329861 Al
0.772876 0.189542 0.329861 Al
0.272876 0.689542 0.329861 Al
0.272876 0.189542 0.329861 Al
0.792484 0.875817 0.309028 Al
0.792484 0.375817 0.309028 Al
0.292484 0.875817 0.309028 Al
0.292484 0.375817 0.309028 Al
0.959150 0.709150 0.309028 Al
0.959150 0.209150 0.309028 Al
0.459150 0.709150 0.309028 Al
0.459150 0.209150 0.309028 Al
0.787582 0.954248 0.402778 Al
0.787582 0.454248 0.402778 Al
0.287582 0.954248 0.402778 Al
0.287582 0.454248 0.402778 Al
0.954248 0.787582 0.402778 Al
0.954248 0.287582 0.402778 Al
0.454248 0.787582 0.402778 Al
0.454248 0.287582 0.402778 Al
0.973856 0.973856 0.381944 Al
0.973856 0.473856 0.381944 Al
0.473856 0.973856 0.381944 Al
0.473856 0.473856 0.381944 Al
0.660131 0.993464 0.361111 Al
0.660131 0.493464 0.361111 Al
0.160131 0.993464 0.361111 Al
0.160131 0.493464 0.361111 Al
0.826797 0.826797 0.361111 Al
0.826797 0.326797 0.361111 Al
0.326797 0.826797 0.361111 Al
0.326797 0.326797 0.361111 Al
0.993464 0.660131 0.361111 Al
0.993464 0.160131 0.361111 Al
0.493464 0.660131 0.361111 Al
0.493464 0.160131 0.361111 Al
0.679739 0.679739 0.340278 Al
0.679739 0.179739 0.340278 Al
0.179739 0.679739 0.340278 Al
0.179739 0.179739 0.340278 Al
0.640523 0.807190 0.381944 Al
0.640523 0.307190 0.381944 Al
0.140523 0.807190 0.381944 Al
0.140523 0.307190 0.381944 Al
0.807190 0.640523 0.381944 Al
0.807190 0.140523 0.381944 Al
0.307190 0.640523 0.381944 Al
0.307190 0.140523 0.381944 Al
0.890523 0.057190 0.381944 Al
0.890523 0.557190 0.381944 Al
0.390523 0.057190 0.381944 Al
0.390523 0.557190 0.381944 Al
0.057190 0.890523 0.381944 Al
0.057190 0.390523 0.381944 Al
0.557190 0.890523 0.381944 Al
0.557190 0.390523 0.381944 Al
0.076797 0.076797 0.361111 Al
0.076797 0.576797 0.361111 Al
0.576797 0.076797 0.361111 Al
0.576797 0.576797 0.361111 Al
0.704248 0.037582 0.402778 Al
0.704248 0.537582 0.402778 Al
0.204248 0.037582 0.402778 Al
0.204248 0.537582 0.402778 Al
0.870915 0.870915 0.402778 Al
0.870915 0.370915 0.402778 Al
0.370915 0.870915 0.402778 Al
0.370915 0.370915 0.402778 Al
0.037582 0.704248 0.402778 Al
0.037582 0.204248 0.402778 Al
0.537582 0.704248 0.402778 Al
0.537582 0.204248 0.402778 Al
0.723856 0.723856 0.381944 Al
0.723856 0.223856 0.381944 Al
0.223856 0.723856 0.381944 Al
0.223856 0.223856 0.381944 Al
0.743464 0.910131 0.361111 Al
0.743464 0.410131 0.361111 Al
0.243464 0.910131 0.361111 Al
0.243464 0.410131 0.361111 Al
0.910131 0.743464 0.361111 Al
0.910131 0.243464 0.361111 Al
0.410131 0.743464 0.361111 Al
0.410131 0.243464 0.361111 Al
0.797386 0.047386 0.392361 Al
0.797386 0.547386 0.392361 Al
0.297386 0.047386 0.392361 Al
0.297386 0.547386 0.392361 Al
0.964052 0.880719 0.392361 Al
0.964052 0.380719 0.392361 Al
0.464052 0.880719 0.392361 Al
0.464052 0.380719 0.392361 Al
0.983660 0.066993 0.371528 Al
0.983660 0.566993 0.371528 Al
0.483660 0.066993 0.371528 Al
0.483660 0.566993 0.371528 Al
0.669935 0.086601 0.350694 Al
0.669935 0.586601 0.350694 Al
0.169935 0.086601 0.350694 Al
0.169935 0.586601 0.350694 Al
0.836601 0.919935 0.350694 Al
0.836601 0.419935 0.350694 Al
0.336601 0.919935 0.350694 Al
0.336601 0.419935 0.350694 Al
0.003268 0.753268 0.350694 Al
0.003268 0.253268 0.350694 Al
0.503268 0.753268 0.350694 Al
0.503268 0.253268 0.350694 Al
0.630719 0.714052 0.392361 Al
0.630719 0.214052 0.392361 Al
0.130719 0.714052 0.392361 Al
0.130719 0.214052 0.392361 Al
0.650327 0.900327 0.371528 Al
0.650327 0.400327 0.371528 Al
0.150327 0.900327 0.371528 Al
0.150327 0.400327 0.371528 Al
0.816993 0.733660 0.371528 Al
0.816993 0.233660 0.371528 Al
0.316993 0.733660 0.371528 Al
0.316993 0.233660 0.371528 Al
0.880719 0.964052 0.392361 Al
0.880719 0.464052 0.392361 Al
0.380719 0.964052 0.392361 Al
0.380719 0.464052 0.392361 Al
0.047386 0.797386 0.392361 Al
0.047386 0.297386 0.392361 Al
0.547386 0.797386 0.392361 Al
0.547386 0.297386 0.392361 Al
0.066993 0.983660 0.371528 Al
0.066993 0.483660 0.371528 Al
0.566993 0.983660 0.371528 Al
0.566993 0.483660 0.371528 Al
0.753268 0.003268 0.350694 Al
0.753268 0.503268 0.350694 Al
0.253268 0.003268 0.350694 Al
0.253268 0.503268 0.350694 Al
0.919935 0.836601 0.350694 Al
0.919935 0.336601 0.350694 Al
0.419935 0.836601 0.350694 Al
0.419935 0.336601 0.350694 Al
0.086601 0.669935 0.350694 Al
0.086601 0.169935 0.350694 Al
0.586601 0.669935 0.350694 Al
0.586601 0.169935 0.350694 Al
0.714052 0.630719 0.392361 Al
0.714052 0.130719 0.392361 Al
0.214052 0.630719 0.392361 Al
0.214052 0.130719 0.392361 Al
0.733660 0.816993 0.371528 Al
0.733660 0.316993 0.371528 Al
0.233660 0.816993 0.371528 Al
0.233660 0.316993 0.371528 Al
0.900327 0.650327 0.371528 Al
0.900327 0.150327 0.371528 Al
0.400327 0.650327 0.371528 Al
0.400327 0.150327 0.371528 Al
0.728758 0.895425 0.465278 Al
0.728758 0.395425 0.465278 Al
0.228758 0.895425 0.465278 Al
0.228758 0.395425 0.465278 Al
0.895425 0.728758 0.465278 Al
0.895425 0.228758 0.465278 Al
0.395425 0.728758 0.465278 Al
0.395425 0.228758 0.465278 Al
0.915033 0.915033 0.444444 Al
0.915033 0.415033 0.444444 Al
0.415033 0.915033 0.444444 Al
0.415033 0.415033 0.444444 Al
0.601307 0.934641 0.423611 Al
0.601307 0.434641 0.423611 Al
0.101307 0.934641 0.423611 Al
0.101307 0.434641 0.423611 Al
0.767974 0.767974 0.423611 Al
0.767974 0.267974 0.423611 Al
0.267974 0.767974 0.423611 Al
0.267974 0.267974 0.423611 Al
0.934641 0.601307 0.423611 Al
0.934641 0.101307 0.423611 Al
0.434641 0.601307 0.423611 Al
0.434641 0.101307 0.423611 Al
0.620915 0.620915 0.402778 Al
0.620915 0.120915 0.402778 Al
0.120915 0.620915 0.402778 Al
0.120915 0.120915 0.402778 Al
0.581699 0.748366 0.444444 Al
0.581699 0.248366 0.444444 Al
0.081699 0.748366 0.444444 Al
0.081699 0.248366 0.444444 Al
0.748366 0.581699 0.444444 Al
0.748366 0.081699 0.444444 Al
0.248366 0.581699 0.444444 Al
0.248366 0.081699 0.444444 Al
0.831699 0.998366 0.444444 Al
0.831699 0.498366 0.444444 Al
0.331699 0.998366 0.444444 Al
0.331699 0.498366 0.444444 Al
0.998366 0.831699 0.444444 Al
0.998366 0.331699 0.444444 Al
0.498366 0.831699 0.444444 Al
0.498366 0.331699 0.444444 Al
0.017974 0.017974 0.423611 Al
0.017974 0.517974 0.423611 Al
0.517974 0.017974 0.423611 Al
0.517974 0.517974 0.423611 Al
0.645425 0.978758 0.465278 Al
0.645425 0.478758 0.465278 Al
0.145425 0.978758 0.465278 Al
0.145425 0.478758 0.465278 Al
0.812092 0.812092 0.465278 Al
0.812092 0.312092 0.465278 Al
0.312092 0.812092 0.465278 Al
0.312092 0.312092 0.465278 Al
0.978758 0.645425 0.465278 Al
0.978758 0.145425 0.465278 Al
0.478758 0.645425 0.465278 Al
0.478758 0.145425 0.465278 Al
0.665033 0.665033 0.444444 Al
0.665033 0.165033 0.444444 Al
0.165033 0.665033 0.444444 Al
0.165033 0.165033 0.444444 Al
0.684641 0.851307 0.423611 Al
0.684641 0.351307 0.423611 Al
0.184641 0.851307 0.423611 Al
0.184641 0.351307 0.423611 Al
0.851307 0.684641 0.423611 Al
0.851307 0.184641 0.423611 Al
0.351307 0.684641 0.423611 Al
0.351307 0.184641 0.423611 Al
0.738562 0.988562 0.454861 Al
0.738562 0.488562 0.454861 Al
0.238562 0.988562 0.454861 Al
0.238562 0.488562 0.454861 Al
0.905229 0.821895 0.454861 Al
0.905229 0.321895 0.454861 Al
0.405229 0.821895 0.454861 Al
0.405229 0.321895 0.454861 Al
0.924837 0.008170 0.434028 Al
0.924837 0.508170 0.434028 Al
0.424837 0.008170 0.434028 Al
0.424837 0.508170 0.434028 Al
0.611111 0.027778 0.413194 Al
0.611111 0.527778 0.413194 Al
0.111111 0.027778 0.413194 Al
0.111111 0.527778 0.413194 Al
0.777778 0.861111 0.413194 Al
0.777778 0.361111 0.413194 Al
0.277778 0.861111 0.413194 Al
0.277778 0.361111 0.413194 Al
0.944444 0.694444 0.413194 Al
0.944444 0.194444 0.413194 Al
0.444444 0.694444 0.413194 Al
0.444444 0.194444 0.413194 Al
0.571895 0.655229 0.454861 Al
0.571895 0.155229 0.454861 Al
0.071895 0.655229 0.454861 Al
0.071895 0.155229 0.454861 Al
0.591503 0.841503 0.434028 Al
0.591503 0.341503 0.434028 Al
0.091503 0.841503 0.434028 Al
0.091503 0.341503 0.434028 Al
0.758170 0.674837 0.434028 Al
0.758170 0.174837 0.434028 Al
0.258170 0.674837 0.434028 Al
0.258170 0.174837 0.434028 Al
0.821895 0.905229 0.454861 Al
0.821895 0.405229 0.454861 Al
0.321895 0.905229 0.454861 Al
0.321895 0.405229 0.454861 Al
0.988562 0.738562 0.454861 Al
0.988562 0.238562 0.454861 Al
0.488562 0.738562 0.454861 Al
0.488562 0.238562 0.454861 Al
0.008170 0.924837 0.434028 Al
0.008170 0.424837 0.434028 Al
0.508170 0.924837 0.434028 Al
0.508170 0.424837 0.434028 Al
0.694444 0.944444 0.413194 Al
0.694444 0.444444 0.413194 Al
0.194444 0.944444 0.413194 Al
0.194444 0.444444 0.413194 Al
0.861111 0.777778 0.413194 Al
0.861111 0.277778 0.413194 Al
0.361111 0.777778 0.413194 Al
0.361111 0.277778 0.413194 Al
0.027778 0.611111 0.413194 Al
0.027778 0.111111 0.413194 Al
0.527778 0.611111 0.413194 Al
0.527778 0.111111 0.413194 Al
0.655229 0.571895 0.454861 Al
0.655229 0.071895 0.454861 Al
0.155229 0.571895 0.454861 Al
0.155229 0.071895 0.454861 Al
0.674837 0.758170 0.434028 Al
0.674837 0.258170 0.434028 Al
0.174837 0.758170 0.434028 Al
0.174837 0.258170 0.434028 Al
0.841503 0.591503 0.434028 Al
0.841503 0.091503 0.434028 Al
0.341503 0.591503 0.434028 Al
0.341503 0.091503 0.434028 Al
0.669935 0.836601 0.527778 Al
0.669935 0.336601 0.527778 Al
0.169935 0.836601 0.527778 Al
0.169935 0.336601 0.527778 Al
0.836601 0.669935 0.527778 Al
0.836601 0.169935 0.527778 Al
0.336601 0.669935 0.527778 Al
0.336601 0.169935 0.527778 Al
0.856209 0.856209 0.506944 Al
0.856209 0.356209 0.506944 Al
0.356209 0.856209 0.506944 Al
0.356209 0.356209 0.506944 Al
0.542484 0.875817 0.486111 Al
0.542484 0.375817 0.486111 Al
0.042484 0.875817 0.486111 Al
0.042484 0.375817 0.486111 Al
0.709150 0.709150 0.486111 Al
0.709150 0.209150 0.486111 Al
0.209150 0.709150 0.486111 Al
0.209150 0.209150 0.486111 Al
0.875817 0.542484 0.486111 Al
0.875817 0.042484 0.486111 Al
0.375817 0.542484 0.486111 Al
0.375817 0.042484 0.486111 Al
0.562092 0.562092 0.465278 Al
0.562092 0.062092 0.465278 Al
0.062092 0.562092 0.465278 Al
0.062092 0.062092 0.465278 Al
0.522876 0.689542 0.506944 Al
0.522876 0.189542 0.506944 Al
0.022876 0.689542 0.506944 Al
0.022876 0.189542 0.506944 Al
0.689542 0.522876 0.506944 Al
0.689542 0.022876 0.506944 Al
0.189542 0.522876 0.506944 Al
0.189542 0.022876 0.506944 Al
0.772876 0.939542 0.506944 Al
0.772876 0.439542 0.506944 Al
0.272876 0.939542 0.506944 Al
0.272876 0.439542 0.506944 Al
0.939542 0.772876 0.506944 Al
0.939542 0.272876 0.506944 Al
0.439542 0.772876 0.506944 Al
0.439542 0.272876 0.506944 Al
0.959150 0.959150 0.486111 Al
0.959150 0.459150 0.486111 Al
0.459150 0.959150 0.486111 Al
0.459150 0.459150 0.486111 Al
0.586601 0.919935 0.527778 Al
0.586601 0.419935 0.527778 Al
0.086601 0.919935 0.527778 Al
0.086601 0.419935 0.527778 Al
0.753268 0.753268 0.527778 Al
0.753268 0.253268 0.527778 Al
0.253268 0.753268 0.527778 Al
0.253268 0.253268 0.527778 Al
0.919935 0.586601 0.527778 Al
0.919935 0.086601 0.527778 Al
0.419935 0.586601 0.527778 Al
0.419935 0.086601 0.527778 Al
0.606209 0.606209 0.506944 Al
0.606209 0.106209 0.506944 Al
0.106209 0.606209 0.506944 Al
0.106209 0.106209 0.506944 Al
0.625817 0.792484 0.486111 Al
0.625817 0.292484 0.486111 Al
0.125817 0.792484 0.486111 Al
0.125817 0.292484 0.486111 Al
0.792484 0.625817 0.486111 Al
0.792484 0.125817 0.486111 Al
0.292484 0.625817 0.486111 Al
0.292484 0.125817 0.486111 Al
0.679739 0.929739 0.517361 Al
0.679739 0.429739 0.517361 Al
0.179739 0.929739 0.517361 Al
0.179739 0.429739 0.517361 Al
0.846405 0.763072 0.517361 Al
0.846405 0.263072 0.517361 Al
0.346405 0.763072 0.517361 Al
0.346405 0.263072 0.517361 Al
0.866013 0.949346 0.496528 Al
0.866013 0.449346 0.496528 Al
0.366013 0.949346 0.496528 Al
0.366013 0.449346 0.496528 Al
0.552288 0.968954 0.475694 Al
0.552288 0.468954 0.475694 Al
0.052288 0.968954 0.475694 Al
0.052288 0.468954 0.475694 Al
0.718954 0.802288 0.475694 Al
0.718954 0.302288 0.475694 Al
0.218954 0.802288 0.475694 Al
0.218954 0.302288 0.475694 Al
0.885621 0.635621 0.475694 Al
0.885621 0.135621 0.475694 Al
0.385621 0.635621 0.475694 Al
0.385621 0.135621 0.475694 Al
0.513072 0.596405 0.517361 Al
0.513072 0.096405 0.517361 Al
0.013072 0.596405 0.517361 Al
0.013072 0.096405 0.517361 Al
0.532680 0.782680 0.496528 Al
0.532680 0.282680 0.496528 Al
0.032680 0.782680 0.496528 Al
0.032680 0.282680 0.496528 Al
0.699346 0.616013 0.496528 Al
0.699346 0.116013 0.496528 Al
0.199346 0.616013 0.496528 Al
0.199346 0.116013 0.496528 Al
0.763072 0.846405 0.517361 Al
0.763072 0.346405 0.517361 Al
0.263072 0.846405 0.517361 Al
0.263072 0.346405 0.517361 Al
0.929739 0.679739 0.517361 Al
0.929739 0.179739 0.517361 Al
0.429739 0.679739 0.517361 Al
0.429739 0.179739 0.517361 Al
0.949346 0.866013 0.496528 Al
0.949346 0.366013 0.496528 Al
0.449346 0.866013 0.496528 Al
0.449346 0.366013 0.496528 Al
0.635621 0.885621 0.475694 Al
0.635621 0.385621 0.475694 Al
0.135621 0.885621 0.475694 Al
0.135621 0.385621 0.475694 Al
0.802288 0.718954 0.475694 Al
0.802288 0.218954 0.475694 Al
0.302288 0.718954 0.475694 Al
0.302288 0.218954 0.475694 Al
0.968954 0.552288 0.475694 Al
0.968954 0.052288 0.475694 Al
0.468954 0.552288 0.475694 Al
0.468954 0.052288 0.475694 Al
0.596405 0.513072 0.517361 Al
0.596405 0.013072 0.517361 Al
0.096405 0.513072 0.517361 Al
0.096405 0.013072 0.517361 Al
0.616013 0.699346 0.496528 Al
0.616013 0.199346 0.496528 Al
0.116013 0.699346 0.496528 Al
0.116013 0.199346 0.496528 Al
0.782680 0.532680 0.496528 Al
0.782680 0.032680 0.496528 Al
0.282680 0.532680 0.496528 Al
0.282680 0.032680 0.496528 Al
0.611111 0.777778 0.590278 Al
0.611111 0.277778 0.590278 Al
0.111111 0.777778 0.590278 Al
0.111111 0.277778 0.590278 Al
0.777778 0.611111 0.590278 Al
0.777778 0.111111 0.590278 Al
0.277778 0.611111 0.590278 Al
0.277778 0.111111 0.590278 Al
0.797386 0.797386 0.569444 Al
0.797386 0.297386 0.569444 Al
0.297386 0.797386 0.569444 Al
0.297386 0.297386 0.569444 Al
0.483660 0.816993 0.548611 Al
0.483660 0.316993 0.548611 Al
0.983660 0.816993 0.548611 Al
0.983660 0.316993 0.548611 Al
0.650327 0.650327 0.548611 Al
0.650327 0.150327 0.548611 Al
0.150327 0.650327 0.548611 Al
0.150327 0.150327 0.548611 Al
0.816993 0.483660 0.548611 Al
0.816993 0.983660 0.548611 Al
0.316993 0.483660 0.548611 Al
0.316993 0.983660 0.548611 Al
0.503268 0.503268 0.527778 Al
0.503268 0.003268 0.527778 Al
0.003268 0.503268 0.527778 Al
0.003268 0.003268 0.527778 Al
0.464052 0.630719 0.569444 Al
0.464052 0.130719 0.569444 Al
0.964052 0.630719 0.569444 Al
0.964052 0.130719 0.569444 Al
0.630719 0.464052 0.569444 Al
0.630719 0.964052 0.569444 Al
0.130719 0.464052 0.569444 Al
0.130719 0.964052 0.569444 Al
0.714052 0.880719 0.569444 Al
0.714052 0.380719 0.569444 Al
0.214052 0.880719 0.569444 Al
0.214052 0.380719 0.569444 Al
0.880719 0.714052 0.569444 Al
0.880719 0.214052 0.569444 Al
0.380719 0.714052 0.569444 Al
0.380719 0.214052 0.569444 Al
0.900327 0.900327 0.548611 Al
0.900327 0.400327 0.548611 Al
0.400327 0.900327 0.548611 Al
0.400327 0.400327 0.548611 Al
0.527778 0.861111 0.590278 Al
0.527778 0.361111 0.590278 Al
0.027778 0.861111 0.590278 Al
0.027778 0.361111 0.590278 Al
0.694444 0.694444 0.590278 Al
0.694444 0.194444 0.590278 Al
0.194444 0.694444 0.590278 Al
0.194444 0.194444 0.590278 Al
0.861111 0.527778 0.590278 Al
0.861111 0.027778 0.590278 Al
0.361111 0.527778 0.590278 Al
0.361111 0.027778 0.590278 Al
0.547386 0.547386 0.569444 Al
0.547386 0.047386 0.569444 Al
0.047386 0.547386 0.569444 Al
0.047386 0.047386 0.569444 Al
0.566993 0.733660 0.548611 Al
0.566993 0.233660 0.548611 Al
0.066993 0.733660 0.548611 Al
0.066993 0.233660 0.548611 Al
0.733660 0.566993 0.548611 Al
0.733660 0.066993 0.548611 Al
0.233660 0.566993 0.548611 Al
0.233660 0.066993 0.548611 Al
0.620915 0.870915 0.579861 Al
0.620915 0.370915 0.579861 Al
0.120915 0.870915 0.579861 Al
0.120915 0.370915 0.579861 Al
0.787582 0.704248 0.579861 Al
0.787582 0.204248 0.579861 Al
0.287582 0.704248 0.579861 Al
0.287582 0.204248 0.579861 Al
0.807190 0.890523 0.559028 Al
0.807190 0.390523 0.559028 Al
0.307190 0.890523 0.559028 Al
0.307190 0.390523 0.559028 Al
0.493464 0.910131 0.538194 Al
0.493464 0.410131 0.538194 Al
0.993464 0.910131 0.538194 Al
0.993464 0.410131 0.538194 Al
0.660131 0.743464 0.538194 Al
0.660131 0.243464 0.538194 Al
0.160131 0.743464 0.538194 Al
0.160131 0.243464 0.538194 Al
0.826797 0.576797 0.538194 Al
0.826797 0.076797 0.538194 Al
0.326797 0.576797 0.538194 Al
0.326797 0.076797 0.538194 Al
0.454248 0.537582 0.579861 Al
0.454248 0.037582 0.579861 Al
0.954248 0.537582 0.579861 Al
0.954248 0.037582 0.579861 Al
0.473856 0.723856 0.559028 Al
0.473856 0.223856 0.559028 Al
0.973856 0.723856 0.559028 Al
0.973856 0.223856 0.559028 Al
0.640523 0.557190 0.559028 Al
0.640523 0.057190 0.559028 Al
0.140523 0.557190 0.559028 Al
0.140523 0.057190 0.559028 Al
0.704248 0.787582 0.579861 Al
0.704248 0.287582 0.579861 Al
0.204248 0.787582 0.579861 Al
0.204248 0.287582 0.579861 Al
0.870915 0.620915 0.579861 Al
0.870915 0.120915 0.579861 Al
0.370915 0.620915 0.579861 Al
0.370915 0.120915 0.579861 Al
0.890523 0.807190 0.559028 Al
0.890523 0.307190 0.559028 Al
0.390523 0.807190 0.559028 Al
0.390523 0.307190 0.559028 Al
0.576797 0.826797 0.538194 Al
0.576797 0.326797 0.538194 Al
0.076797 0.826797 0.538194 Al
0.076797 0.326797 0.538194 Al
0.743464 0.660131 0.538194 Al
0.743464 0.160131 0.538194 Al
0.243464 0.660131 0.538194 Al
0.243464 0.160131 0.538194 Al
0.910131 0.493464 0.538194 Al
0.910131 0.993464 0.538194 Al
0.410131 0.493464 0.538194 Al
0.410131 0.993464 0.538194 Al
0.537582 0.454248 0.579861 Al
0.537582 0.954248 0.579861 Al
0.037582 0.454248 0.579861 Al
0.037582 0.954248 0.579861 Al
0.557190 0.640523 0.559028 Al
0.557190 0.140523 0.559028 Al
0.057190 0.640523 0.559028 Al
0.057190 0.140523 0.559028 Al
0.723856 0.473856 0.559028 Al
0.723856 0.973856 0.559028 Al
0.223856 0.473856 0.559028 Al
0.223856 0.973856 0.559028 Al
0.552288 0.718954 0.652778 Al
0.552288 0.218954 0.652778 Al
0.052288 0.718954 0.652778 Al
0.052288 0.218954 0.652778 Al
0.718954 0.552288 0.652778 Al
0.718954 0.052288 0.652778 Al
0.218954 0.552288 0.652778 Al
0.218954 0.052288 0.652778 Al
0.738562 0.738562 0.631944 Al
0.738562 0.238562 0.631944 Al
0.238562 0.738562 0.631944 Al
0.238562 0.238562 0.631944 Al
0.424837 0.758170 0.611111 Al
0.424837 0.258170 0.611111 Al
0.924837 0.758170 0.611111 Al
0.924837 0.258170 0.611111 Al
0.591503 0.591503 0.611111 Al
0.591503 0.091503 0.611111 Al
0.091503 0.591503 0.611111 Al
0.091503 0.091503 0.611111 Al
0.758170 0.424837 0.611111 Al
0.758170 0.924837 0.611111 Al
0.258170 0.424837 0.611111 Al
0.258170 0.924837 0.611111 Al
0.444444 0.444444 0.590278 Al
0.444444 0.944444 0.590278 Al
0.944444 0.444444 0.590278 Al
0.944444 0.944444 0.590278 Al
0.405229 0.571895 0.631944 Al
0.405229 0.071895 0.631944 Al
0.905229 0.571895 0.631944 Al
0.905229 0.071895 0.631944 Al
0.571895 0.405229 0.631944 Al
0.571895 0.905229 0.631944 Al
0.071895 0.405229 0.631944 Al
0.071895 0.905229 0.631944 Al
0.655229 0.821895 0.631944 Al
0.655229 0.321895 0.631944 Al
0.155229 0.821895 0.631944 Al
0.155229 0.321895 0.631944 Al
0.821895 0.655229 0.631944 Al
0.821895 0.155229 0.631944 Al
0.321895 0.655229 0.631944 Al
0.321895 0.155229 0.631944 Al
0.841503 0.841503 0.611111 Al
0.841503 0.341503 0.611111 Al
0.341503 0.841503 0.611111 Al
0.341503 0.341503 0.611111 Al
0.468954 0.802288 0.652778 Al
0.468954 0.302288 0.652778 Al
0.968954 0.802288 0.652778 Al
0.968954 0.302288 0.652778 Al
0.635621 0.635621 0.652778 Al
0.635621 0.135621 0.652778 Al
0.135621 0.635621 0.652778 Al
0.135621 0.135621 0.652778 Al
0.802288 0.468954 0.652778 Al
0.802288 0.968954 0.652778 Al
0.302288 0.468954 0.652778 Al
0.302288 0.968954 0.652778 Al
0.488562 0.488562 0.631944 Al
0.488562 0.988562 0.631944 Al
0.988562 0.488562 0.631944 Al
0.988562 0.988562 0.631944 Al
0.508170 0.674837 0.611111 Al
0.508170 0.174837 0.611111 Al
0.008170 0.674837 0.611111 Al
0.008170 0.174837 0.611111 Al
0.674837 0.508170 0.611111 Al
0.674837 0.008170 0.611111 Al
0.174837 0.508170 0.611111 Al
0.174837 0.008170 0.611111 Al
0.562092 0.812092 0.642361 Al
0.562092 0.312092 0.642361 Al
0.062092 0.812092 0.642361 Al
0.062092 0.312092 0.642361 Al
0.728758 0.645425 0.642361 Al
0.728758 0.145425 0.642361 Al
0.228758 0.645425 0.642361 Al
0.228758 0.145425 0.642361 Al
0.748366 0.831699 0.621528 Al
0.748366 0.331699 0.621528 Al
0.248366 0.831699 0.621528 Al
0.248366 0.331699 0.621528 Al
0.434641 0.851307 0.600694 Al
0.434641 0.351307 0.600694 Al
0.934641 0.851307 0.600694 Al
0.934641 0.351307 0.600694 Al
0.601307 0.684641 0.600694 Al
0.601307 0.184641 0.600694 Al
0.101307 0.684641 0.600694 Al
0.101307 0.184641 0.600694 Al
0.767974 0.517974 0.600694 Al
0.767974 0.017974 0.600694 Al
0.267974 0.517974 0.600694 Al
0.267974 0.017974 0.600694 Al
0.395425 0.478758 0.642361 Al
0.395425 0.978758 0.642361 Al
0.895425 0.478758 0.642361 Al
0.895425 0.978758 0.642361 Al
0.415033 0.665033 0.621528 Al
0.415033 0.165033 0.621528 Al
0.915033 0.665033 0.621528 Al
0.915033 0.165033 0.621528 Al
0.581699 0.498366 0.621528 Al
0.581699 0.998366 0.621528 Al
0.081699 0.498366 0.621528 Al
0.081699 0.998366 0.621528 Al
0.645425 0.728758 0.642361 Al
0.645425 0.228758 0.642361 Al
0.145425 0.728758 0.642361 Al
0.145425 0.228758 0.642361 Al
0.812092 0.562092 0.642361 Al
0.812092 0.062092 0.642361 Al
0.312092 0.562092 0.642361 Al
0.312092 0.062092 0.642361 Al
0.831699 0.748366 0.621528 Al
0.831699 0.248366 0.621528 Al
0.331699 0.748366 0.621528 Al
0.331699 0.248366 0.621528 Al
0.517974 0.767974 0.600694 Al
0.517974 0.267974 0.600694 Al
0.017974 0.767974 0.600694 Al
0.017974 0.267974 0.600694 Al
0.684641 0.601307 0.600694 Al
0.684641 0.101307 0.600694 Al
0.184641 0.601307 0.600694 Al
0.184641 0.101307 0.600694 Al
0.851307 0.434641 0.600694 Al
0.851307 0.934641 0.600694 Al
0.351307 0.434641 0.600694 Al
0.351307 0.934641 0.600694 Al
0.478758 0.395425 0.642361 Al
0.478758 0.895425 0.642361 Al
0.978758 0.395425 0.642361 Al
0.978758 0.895425 0.642361 Al
0.498366 0.581699 0.621528 Al
0.498366 0.081699 0.621528 Al
0.998366 0.581699 0.621528 Al
0.998366 0.081699 0.621528 Al
0.665033 0.415033 0.621528 Al
0.665033 0.915033 0.621528 Al
0.165033 0.415033 0.621528 Al
0.165033 0.915033 0.621528 Al
0.493464 0.660131 0.715278 Al
0.493464 0.160131 0.715278 Al
0.993464 0.660131 0.715278 Al
0.993464 0.160131 0.715278 Al
0.660131 0.493464 0.715278 Al
0.660131 0.993464 0.715278 Al
0.160131 0.493464 0.715278 Al
0.160131 0.993464 0.715278 Al
0.679739 0.679739 0.694444 Al
0.679739 0.179739 0.694444 Al
0.179739 0.679739 0.694444 Al
0.179739 0.179739 0.694444 Al
0.366013 0.699346 0.673611 Al
0.366013 0.199346 0.673611 Al
0.866013 0.699346 0.673611 Al
0.866013 0.199346 0.673611 Al
0.532680 0.532680 0.673611 Al
0.532680 0.032680 0.673611 Al
0.032680 0.532680 0.673611 Al
0.032680 0.032680 0.673611 Al
0.699346 0.366013 0.673611 Al
0.699346 0.866013 0.673611 Al
0.199346 0.366013 0.673611 Al
0.199346 0.866013 0.673611 Al
0.385621 0.385621 0.652778 Al
0.385621 0.885621 0.652778 Al
0.885621 0.385621 0.652778 Al
0.885621 0.885621 0.652778 Al
0.346405 0.513072 0.694444 Al
0.346405 0.013072 0.694444 Al
0.846405 0.513072 0.694444 Al
0.846405 0.013072 0.694444 Al
0.513072 0.346405 0.694444 Al
0.513072 0.846405 0.694444 Al
0.013072 0.346405 0.694444 Al
0.013072 0.846405 0.694444 Al
0.596405 0.763072 0.694444 Al
0.596405 0.263072 0.694444 Al
0.096405 0.763072 0.694444 Al
0.096405 0.263072 0.694444 Al
0.763072 0.596405 0.694444 Al
0.763072 0.096405 0.694444 Al
0.263072 0.596405 0.694444 Al
0.263072 0.096405 0.694444 Al
0.782680 0.782680 0.673611 Al
0.782680 0.282680 0.673611 Al
0.282680 0.782680 0.673611 Al
0.282680 0.282680 0.673611 Al
0.410131 0.743464 0.715278 Al
0.410131 0.243464 0.715278 Al
0.910131 0.743464 0.715278 Al
0.910131 0.243464 0.715278 Al
0.576797 0.576797 0.715278 Al
0.576797 0.076797 0.715278 Al
0.076797 0.576797 0.715278 Al
0.076797 0.076797 0.715278 Al
0.743464 0.410131 0.715278 Al
0.743464 0.910131 0.715278 Al
0.243464 0.410131 0.715278 Al
0.243464 0.910131 0.715278 Al
0.429739 0.429739 0.694444 Al
0.429739 0.929739 0.694444 Al
0.929739 0.429739 0.694444 Al
0.929739 0.929739 0.694444 Al
0.449346 0.616013 0.673611 Al
0.449346 0.116013 0.673611 Al
0.949346 0.616013 0.673611 Al
0.949346 0.116013 0.673611 Al
0.616013 0.449346 0.673611 Al
0.616013 0.949346 0.673611 Al
0.116013 0.449346 0.673611 Al
0.116013 0.949346 0.673611 Al
0.503268 0.753268 0.704861 Al
0.503268 0.253268 0.704861 Al
0.003268 0.753268 0.704861 Al
0.003268 0.253268 0.704861 Al
0.669935 0.586601 0.704861 Al
0.669935 0.086601 0.704861 Al
0.169935 0.586601 0.704861 Al
0.169935 0.086601 0.704861 Al
0.689542 0.772876 0.684028 Al
0.689542 0.272876 0.684028 Al
0.189542 0.772876 0.684028 Al
0.189542 0.272876 0.684028 Al
0.375817 0.792484 0.663194 Al
0.375817 0.292484 0.663194 Al
0.875817 0.792484 0.663194 Al
0.875817 0.292484 0.663194 Al
0.542484 0.625817 0.663194 Al
0.542484 0.125817 0.663194 Al
0.042484 0.625817 0.663194 Al
0.042484 0.125817 0.663194 Al
0.709150 0.459150 0.663194 Al
0.709150 0.959150 0.663194 Al
0.209150 0.459150 0.663194 Al
0.209150 0.959150 0.663194 Al
0.336601 0.419935 0.704861 Al
0.336601 0.919935 0.704861 Al
0.836601 0.419935 0.704861 Al
0.836601 0.919935 0.704861 Al
0.356209 0.606209 0.684028 Al
0.356209 0.106209 0.684028 Al
0.856209 0.606209 0.684028 Al
0.856209 0.106209 0.684028 Al
0.522876 0.439542 0.684028 Al
0.522876 0.939542 0.684028 Al
0.022876 0.439542 0.684028 Al
0.022876 0.939542 0.684028 Al
0.586601 0.669935 0.704861 Al
0.586601 0.169935 0.704861 Al
0.086601 0.669935 0.704861 Al
0.086601 0.169935 0.704861 Al
0.753268 0.503268 0.704861 Al
0.753268 0.003268 0.704861 Al
0.253268 0.503268 0.704861 Al
0.253268 0.003268 0.704861 Al
0.772876 0.689542 0.684028 Al
0.772876 0.189542 0.684028 Al
0.272876 0.689542 0.684028 Al
0.272876 0.189542 0.684028 Al
0.459150 0.709150 0.663194 Al
0.459150 0.209150 0.663194 Al
0.959150 0.709150 0.663194 Al
0.959150 0.209150 0.663194 Al
0.625817 0.542484 0.663194 Al
0.625817 0.042484 0.663194 Al
0.125817 0.542484 0.663194 Al
0.125817 0.042484 0.663194 Al
0.792484 0.375817 0.663194 Al
0.792484 0.875817 0.663194 Al
0.292484 0.375817 0.663194 Al