PREC=Accurate
ISMEAR=0
IBRION=6
GGA=BO
PARAM1=0.1833333333
PARAM2=0.22
LUSE_VDW=.TRUE.
AGGAC=0.0
EDIFF=1E-7
NSW=1
NELM=400
ISIF=3
LCHARG=.FALSE.
LWAVE=.FALSE.
NBANDS=96
ENCUT=650.0
NEDOS=5000
POTIM=0.015
ISPIN=2
