bulk@JVASP-1002                         
1.0
5.49364 0.0 0.0
0.0 5.49364 0.0
0.0 0.0 5.49364
Si
8
direct
0.25 0.25 0.25 
0.5 0.0 0.5 
0.25 0.75 0.75 
0.5 0.5 0.0 
0.75 0.25 0.75 
0.0 0.0 0.0 
0.75 0.75 0.25 
0.0 0.5 0.5 
