PREC=Accurate
ISMEAR=0
IBRION=2
GGA=BO
PARAM1=0.1833333333
PARAM2=0.22
LUSE_VDW=.TRUE.
AGGAC=0.0
EDIFF=1E-7
NSW=1
NELM=400
ISIF=2
LCHARG=.FALSE.
LWAVE=.FALSE.
ENCUT=700
