AGGAC = 0.0
EDIFF = 1E-7
ENCUT = 500
GGA = BO
IBRION = 1
ISIF = 2
ISMEAR = 0
ISPIN = 2
LCHARG = .FALSE.
LORBIT = 11
LUSE_VDW = .TRUE.
LWAVE = .FALSE.
NBANDS = 22
NEDOS = 5000
NELM = 400
NPAR = 4
PARAM1 = 0.1833333333
PARAM2 = 0.22
PREC = Accurate
