bulk@mp_149                             
   1.00000000000000     
     3.3488980000000002    0.0000000000000000    1.9334870000000000
     1.1162989999999999    3.1573720000000001    1.9334870000000000
     0.0000000000000000    0.0000000000000000    3.8669750000000001
   Si
     2
Direct
  0.8750000000000000  0.8750000000000000  0.8750000000000000
  0.1250000000000000  0.1250000000000000  0.1250000000000000
 
  0.00000000E+00  0.00000000E+00  0.00000000E+00
  0.00000000E+00  0.00000000E+00  0.00000000E+00
