Al12
1.0
5.711910 0.000000 0.000000
2.855955 4.946659 0.000000
0.000000 0.000000 40.663755
Al
12
direct
0.000000 0.000000 0.442655 Al
0.000000 0.500000 0.442655 Al
0.500000 0.000000 0.442655 Al
0.500000 0.500000 0.442655 Al
0.666667 0.666667 0.500000 Al
0.666667 0.166667 0.500000 Al
0.166667 0.666667 0.500000 Al
0.166667 0.166667 0.500000 Al
0.333333 0.333333 0.557345 Al
0.333333 0.833333 0.557345 Al
0.833333 0.333333 0.557345 Al
0.833333 0.833333 0.557345 Al
