 SYSTEM = Y3Al5O12-garnet
ISTART = 1
 LHFCALC = .TRUE. ; HFSCREEN = 0.2
 NBANDS = 32
 ALGO = All ; TIME = 0.4
 LREAL = .FALSE.
  NELM = 150
  NEDOS = 5000
  EDIFF  =  1E-06  #  energy stopping-criterion for ELM
  LMAXMIX = 6
 ISMEAR = 0
 LORBIT = 11
 ISPIN = 2
 LOPTICS = .True.
# ENCUTFOCK = 0  ! omit flag for high quality calculations
# NKRED     = 2  ! omit flag for high quality calculations
 Parallelization flags:
   NPAR   =  16
   NSIM   =  4
   LPLANE = .TRUE.

