bulk@mp-149
1.0
3.348898 0.000000 1.933487
1.116299 3.157372 1.933487
0.000000 0.000000 3.866975
Si
2
direct
0.875000 0.875000 0.875000 Si
0.125000 0.125000 0.125000 Si
