bulk@JVASP-1002                         
   1.0000000000000000     
     0.0000000000000000    2.7468211375935732    2.7468211375935732
     2.7468211375935732    0.0000000000000000    2.7468211375935732
     2.7468211375935732    2.7468211375935732    0.0000000000000000
   Si
     2
Direct
  0.7500000000000000  0.7500000000000000  0.7500000000000000
  0.5000000000000000  0.5000000000000000  0.5000000000000000

  0.00000000E+00  0.00000000E+00  0.00000000E+00
  0.00000000E+00  0.00000000E+00  0.00000000E+00
