bulk@mp-30
1.0
3.616407 0.000000 0.000000
0.000000 3.616407 0.000000
0.000000 0.000000 3.616407
Cu
4
direct
0.000000 0.000000 0.000000 Cu
0.000000 0.500000 0.500000 Cu
0.500000 0.000000 0.500000 Cu
0.500000 0.500000 0.000000 Cu
