AGGAC = 0.0
EDIFF = 1E-7
ENCUT = 650.0
GGA = BO
IBRION = 6
ISIF = 3
ISMEAR = 0
LUSE_VDW = .TRUE.
LWAVE = .FALSE.
NEDOS = 5000
NELM = 400
NPAR = 16
PARAM1 = 0.1833333333
PARAM2 = 0.22
POTIM = 0.015
PREC = Accurate
