bulk@mp_1143                            
   1.00000000000000     
     4.2532555997746124   -0.0011343765684713    2.9430073105702399
     1.5418587211052550    3.9639443197365338    2.9430069244326971
    -0.0016591490976551   -0.0011346142113319    5.1721819233602391
   O    Al   O    Al   O 
     2     2     2     2     2
Direct
  0.4439293508818836  0.0560708767834902  0.7499998963996108
  0.9439293628504309  0.2500001063057983  0.5560706222914200
  0.6477364362962323  0.6477363097637480  0.6477360114118498
  0.8522638418686819  0.8522638526309696  0.8522637083223702
  0.0560707973141390  0.7500001080435490  0.4439289539634804
  0.7500001291782309  0.4439294294515994  0.0560705921998175
  0.1477363897136121  0.1477363560704429  0.1477359666844035
  0.3522637530507078  0.3522638664292295  0.3522635509857079
  0.2500000828202263  0.5560707875779606  0.9439290055331974
  0.5560708560258524  0.9439293069432100  0.2499996922081476
 
  0.00000000E+00  0.00000000E+00  0.00000000E+00
  0.00000000E+00  0.00000000E+00  0.00000000E+00
  0.00000000E+00  0.00000000E+00  0.00000000E+00
  0.00000000E+00  0.00000000E+00  0.00000000E+00
  0.00000000E+00  0.00000000E+00  0.00000000E+00
  0.00000000E+00  0.00000000E+00  0.00000000E+00
  0.00000000E+00  0.00000000E+00  0.00000000E+00
  0.00000000E+00  0.00000000E+00  0.00000000E+00
  0.00000000E+00  0.00000000E+00  0.00000000E+00
  0.00000000E+00  0.00000000E+00  0.00000000E+00

