bulk@mp-134                             
   1.0000000000000000     
     2.4907700981598087   -0.0000000014394160    1.4380466239503942
     0.8302566980295084    2.3483206267045227    1.4380466239503940
    -0.0000000040712846   -0.0000000028788330    2.8760942620041314
   Al
     1
Direct
  0.0000000000000000  0.0000000000000000 -0.0000000000000000

  0.00000000E+00  0.00000000E+00  0.00000000E+00

