vacancy_1_mult-1_sitespecie-Al@cellmax1
1.0
4.038930 0.000000 0.000000
0.000000 4.038930 0.000000
0.000000 0.000000 4.038930
Al
3
direct
0.000000 0.500000 0.500000 Al
0.500000 0.000000 0.500000 Al
0.500000 0.500000 0.000000 Al
