System
1.0
4.410185407418438 0.0 0.0
0.0 14.800399076769633 0.0
0.0 0.0 4.10815086935202
Tl Sb Se
2 2 4
direct
0.5 0.0 0.5 
0.0 0.5 0.5 
0.0 0.0 0.0 
0.5 0.5 0.0 
0.5 0.21313716059883106 0.5 
0.0 0.2868628394011689 0.5 
0.0 0.7131371605988309 0.5 
0.5 0.786862839401169 0.5 
