System
1.0
8.969516964453975 7.5202118e-09 0.0
-7.5202118e-09 8.969516964453975 0.0
0.0 0.0 7.441974158500015
Tl Bi Cl
6 2 12
direct
0.5 0.5 0.0 
0.5 0.5 0.5 
0.2664108876218814 0.0821675880014486 0.0 
0.7335891123781186 0.9178324119985513 0.0 
0.0821675880014486 0.7335891123781186 0.5 
0.9178324119985513 0.2664108876218814 0.5 
0.0 0.5 0.0 
0.5 0.0 0.5 
0.7975785823321391 0.9347109498459275 0.5 
0.2024214176678609 0.0652890501540725 0.5 
0.20576781665600882 0.4340361810722895 0.2575764822350282 
0.7942321833439913 0.5659638189277104 0.2575764822350282 
0.5659638189277104 0.20576781665600882 0.7575764822350282 
0.4340361810722895 0.7942321833439913 0.2424235177649718 
0.7942321833439913 0.5659638189277104 0.7424235177649718 
0.20576781665600882 0.4340361810722895 0.7424235177649718 
0.0652890501540725 0.7975785823321391 0.0 
0.5659638189277104 0.20576781665600882 0.2424235177649718 
0.4340361810722895 0.7942321833439913 0.7575764822350282 
0.9347109498459275 0.2024214176678609 0.0 
