System
1.0
-0.0 -0.0 3.7532597078234464
6.360809542867276 0.1436037322186861 -0.0
-2.518747776800864 5.842639098136275 0.0
Cu Br O
2 2 4
direct
0.49999999999999994 0.2646905937077114 0.264690593707459 
0.0 0.7353094062922882 0.7353094062925405 
0.7499999999999999 0.6411913787542183 0.3588086212461937 
0.24999999999999997 0.3588086212457814 0.641191378753806 
0.21437249143070516 -0.0022301475459953956 0.18314191621529527 
0.2856275085692949 0.8168580837845698 0.002230147545453598 
0.7856275085692949 0.1831419162154307 -0.0022301475454536003 
0.7143724914307049 0.0022301475459955743 0.8168580837847043 
