System
1.0
3.2551879932012007 -5.6381512622198455 0.0
3.2551879932012007 5.6381512622198455 0.0
0.0 0.0 13.436361716288497
Sc Ag P Se
2 2 4 12
direct
0.0 0.0 0.24999999999999997 
0.0 0.0 0.75 
0.3333330000000032 0.6666669999999968 0.75 
0.6666669999999968 0.3333330000000032 0.24999999999999997 
0.6666669999999968 0.3333330000000032 0.6658585679893714 
0.6666669999999968 0.3333330000000032 0.8341414320106285 
0.3333330000000032 0.6666669999999968 0.3341414320106282 
0.3333330000000032 0.6666669999999968 0.16585856798937168 
0.6725667997491189 0.9796222741555047 0.3818414787672131 
0.3070554743995393 0.979622274156458 0.11815852123278679 
0.979622274156458 0.3070554743995393 0.6181585212327867 
0.6929445255926611 0.6725667997559649 0.6181585212327867 
0.32743320025088135 0.020377725844495626 0.6181585212327867 
0.020377725843542163 0.6929445256004606 0.3818414787672131 
0.32743320024403494 0.3070554744073393 0.8818414787672132 
0.020377725844495626 0.32743320025088135 0.11815852123278679 
0.9796222741555047 0.6725667997491189 0.8818414787672132 
0.6725667997559649 0.6929445255926611 0.11815852123278679 
0.6929445256004606 0.020377725843542218 0.8818414787672132 
0.3070554744073392 0.3274332002440348 0.3818414787672131 
