System
1.0
6.396011044493007 7.4746102e-09 0.0
-3.198006009717633 5.5391075387306845 0.0
-0.0 -0.0 10.065558208704578
Te O
6 18
direct
0.6628386965701545 -8.023e-13 0.4988687282050784 
0.6628386965690242 0.6628386965686963 -0.0011312717949212 
1.13053890064053e-12 0.3371613034305012 -0.0011312717949212 
-1.130479176443407e-12 0.6628386965694978 0.4988687282050784 
0.3371613034309754 0.3371613034313037 0.4988687282050784 
0.3371613034298449 8.023e-13 -0.0011312717949212 
6.517005569860713e-13 0.2498184183400048 0.1689198552409233 
-6.517195638873047e-13 0.7501815816599958 0.6689198552409237 
0.2498184183402776 0.2498184183404674 0.6689198552409237 
0.2498184183396263 4.625e-13 0.1689198552409233 
0.5368047417113967 1.88409e-11 0.3374289833572285 
0.5368047417379466 0.5368047417456558 0.8374289833572297 
-2.654956119604909e-11 0.46319525827318553 0.8374289833572297 
2.6549606979942483e-11 0.5368047417268146 0.3374289833572285 
0.0 0.0 0.4312700829820222 
0.46319525828860325 -1.88409e-11 0.8374289833572297 
0.7501815816597215 0.7501815816595327 0.1689198552409233 
0.0 0.0 0.9312700829820223 
0.3333330000000032 0.6666669999999969 0.04300560830414131 
0.6666669999999968 0.33333300000000327 0.5430056083041409 
0.3333330000000032 0.6666669999999969 0.5430056083041409 
0.6666669999999968 0.33333300000000327 0.04300560830414131 
0.463195258262053 0.46319525825434493 0.3374289833572285 
0.750181581660373 -4.625e-13 0.6689198552409237 
