System
1.0
3.7999506838003527 0.0 0.0
0.0 6.056321261754043 0.0
0.0 0.0 17.211588225565098
Sb S I
4 4 4
direct
0.7502540619073003 0.5003258070339767 0.3582126998314251 
0.2497459380926993 0.0003258070339767 0.1417873001685751 
0.2502540619073009 -0.0003258070339767 0.641787300168576 
0.7497459380926995 0.4996741929660233 0.8582126998314239 
0.7497608460643236 0.0003127259338411 0.0466759060890514 
0.24976084606432297 0.499687274066159 0.9533240939109484 
0.7502391539356763 0.999687274066159 0.5466759060890516 
0.2502391539356766 0.500312725933841 0.4533240939109485 
0.2500130813039808 0.5003306953169164 0.1749259439139435 
0.7500130813039804 0.9996693046830836 0.8250740560860562 
0.7499869186960195 0.0003306953169165 0.3250740560860563 
0.24998691869601916 0.49966930468308324 0.6749259439139438 
