System
1.0
5.067788675835251 -0.0525353815484117 -0.0
-2.579252820005212 4.362648400494827 -0.0
0.0 -0.0 8.33020115070039
Si O
4 8
direct
0.3404256803878713 0.6686543389818032 0.0627962470859404 
0.6686543389833104 0.3404256803894579 0.5627962470859399 
0.3404256803878713 0.6686543389818032 0.4372037529140597 
0.6686543389833104 0.3404256803894579 0.9372037529140602 
0.6119161881798202 0.6119161881839512 0.0 
0.46005692882551313 0.03357634325542841 0.45443267370980944 
0.5677960304763638 0.2569480102778808 0.7500000000000001 
0.0335763432495103 0.4600569288179718 0.5455673262901913 
0.2569480102716104 0.567796030464918 0.25 
0.0335763432495103 0.4600569288179718 0.9544326737098087 
0.6119161881798202 0.6119161881839512 0.5 
0.46005692882551313 0.03357634325542841 0.0455673262901909 
