System
1.0
8.522502629505794 -4.805927e-10 4.920469683555958
2.8408345424282113 8.03509306002869 4.92046968355596
-4.975461e-10 -3.518182e-10 9.840938368835536
Na Mg C S O
12 4 8 2 32
direct
0.9074846009552316 0.3425153990447564 0.3425153990447714 
0.09251539904476262 0.6574846009552378 0.09251539904476506 
0.09251539904476659 0.0925153990447542 0.657484600955234 
0.6574846009552334 0.6574846009552457 0.09251539904476634 
0.6574846009552378 0.0925153990447623 0.6574846009552352 
0.09251539904476852 0.6574846009552437 0.6574846009552286 
0.3425153990447685 0.9074846009552437 0.9074846009552286 
0.9074846009552378 0.3425153990447622 0.9074846009552351 
0.6574846009552316 0.0925153990447563 0.09251539904477134 
0.3425153990447625 0.9074846009552378 0.34251539904476497 
0.3425153990447665 0.3425153990447542 0.907484600955234 
0.9074846009552335 0.9074846009552457 0.3425153990447663 
0.5 0.5 0.5 
9.87754310404996e-18 0.5 0.5 
0.5 0.0 0.5 
0.5 0.5 1.8342131826915308e-17 
0.7180524179059959 0.3458427462820208 0.7180524179059943 
0.3458427462820112 0.7180524179059959 0.718052417905999 
0.7180524179059946 0.71805241790599 0.7180524179059982 
0.2819475820940045 0.6541572537179791 0.2819475820940062 
0.2819475820940014 0.2819475820940062 0.6541572537179908 
0.6541572537179888 0.2819475820940045 0.2819475820940014 
0.28194758209400594 0.2819475820940107 0.28194758209400234 
0.718052417905999 0.7180524179059943 0.3458427462820093 
0.8749999999999999 0.8750000000000001 0.875 
0.125 0.125 0.125 
0.30938657567142136 0.3969175269168717 0.13811497777659207 
0.9369124867498014 0.9369124867498064 0.6892625397505825 
0.06308751325019518 0.3107374602494293 0.06308751325019364 
0.0630875132501984 0.0630875132501936 0.3107374602494176 
0.9369124867498063 0.9369124867498112 0.9369124867498025 
0.6892625397505804 0.9369124867498047 0.9369124867498018 
0.9369124867498045 0.6892625397505708 0.9369124867498065 
0.3107374602494196 0.0630875132501952 0.06308751325019836 
0.0630875132501938 0.063087513250189 0.06308751325019749 
0.6030824730831331 0.6906134243285764 0.3444190803648809 
0.3444190803648798 0.8618850222234113 0.6030824730831341 
0.861885022223409 0.3444190803648841 0.690613424328577 
0.6906134243285746 0.3444190803648794 0.6030824730831364 
0.6906134243285776 0.8618850222234148 0.3444190803648804 
0.8618850222234071 0.6030824730831276 0.34441908036488456 
0.3444190803648818 0.6030824730831261 0.6906134243285784 
0.6030824730831347 0.3444190803648793 0.8618850222234058 
0.8618850222234062 0.6906134243285804 0.6030824730831359 
0.6906134243285784 0.6030824730831287 0.8618850222234081 
0.39691752691686727 0.3093865756714237 0.655580919635119 
0.6555809196351199 0.1381149777765888 0.3969175269168658 
0.1381149777765912 0.655580919635116 0.3093865756714225 
0.309386575671425 0.6555809196351203 0.3969175269168639 
0.30938657567142214 0.1381149777765852 0.6555809196351193 
0.13811497777659293 0.3969175269168723 0.6555809196351154 
0.6555809196351181 0.3969175269168742 0.30938657567142164 
0.3969175269168652 0.6555809196351203 0.1381149777765946 
0.655580919635116 0.3093865756714184 0.13811497777659507 
0.34441908036488383 0.6906134243285816 0.8618850222234054 
0.13811497777659412 0.3093865756714198 0.39691752691686455 
0.6030824730831343 0.8618850222234116 0.6906134243285744 
0.3969175269168658 0.1381149777765884 0.3093865756714256 
