System
1.0
6.895413843235326 -0.0 0.0
0.0 6.895413843235326 -0.0
-0.0 0.0 6.895413843235326
Mo Pt N
12 8 4
direct
0.6249999999999999 0.7005646880859743 0.9505646880859744 
0.7994353119140256 0.0494353119140255 0.12499999999999999 
0.12499999999999999 0.7994353119140256 0.0494353119140255 
0.29943531191402534 0.45056468808597444 0.875 
0.0494353119140255 0.12499999999999999 0.7994353119140256 
0.875 0.29943531191402534 0.45056468808597444 
0.9505646880859744 0.6249999999999999 0.7005646880859743 
0.375 0.20056468808597447 0.5494353119140256 
0.5494353119140256 0.375 0.20056468808597447 
0.7005646880859743 0.9505646880859744 0.6249999999999999 
0.45056468808597444 0.875 0.2994353119140255 
0.20056468808597447 0.5494353119140256 0.375 
0.9434346939301574 0.44343469393015716 0.0565653060698427 
0.0565653060698427 0.9434346939301574 0.44343469393015716 
0.5565653060698426 0.5565653060698426 0.5565653060698426 
0.6934346939301573 0.3065653060698428 0.8065653060698426 
0.8065653060698426 0.6934346939301573 0.3065653060698428 
0.3065653060698428 0.8065653060698426 0.6934346939301573 
0.1934346939301572 0.1934346939301572 0.1934346939301572 
0.44343469393015716 0.0565653060698427 0.9434346939301574 
0.12499999999999999 0.375 0.6249999999999999 
0.375 0.6249999999999999 0.12499999999999999 
0.875 0.875 0.875 
0.6249999999999999 0.12499999999999999 0.375 
