System
1.0
0.0 10.376437416158174 0.0001158648755425
5.856561703918608 0.0 0.0
0.0 -5.188278526692652 -8.986471795285635
Pr Ag Ge S
6 2 2 14
direct
0.8740324997151382 0.7426386600006174 0.23321367535255944 
0.12596750028486162 0.2426386600006174 0.7667863246474405 
0.3591768074690663 0.7426352180318884 0.1259682493365008 
0.7667930268572862 0.7426449095086735 0.6408293721886192 
0.23320697314271396 0.2426449095086735 0.35917062781138065 
0.640823192530934 0.2426352180318886 0.8740317506634991 
4.1095980825e-06 0.7025868455729635 -5.579540642e-07 
-4.109598082600001e-06 0.2025868455729632 5.579540639e-07 
0.6666650363326548 0.3251080099086401 0.3333358793844649 
0.3333349636673526 0.82510800990864 0.6666641206155353 
0.8254677019187828 0.2274556432353458 0.7308394227546103 
0.26917223632503523 0.2274571085278425 0.094629887706755 
0.09463202300470265 0.7274470205357196 0.8254649615497589 
0.9053679769952977 0.2274470205357199 0.1745350384502413 
0.47942740061028655 0.9809506605727645 0.5859067681074724 
0.10648149193346094 0.980949928781654 0.520570338432416 
0.33333694268794173 0.4481833667441005 0.666664171005459 
0.5205725993897133 0.4809506605727641 0.41409323189252745 
0.4140843628617008 0.9809446285797931 0.8935091200109304 
0.5859156371382993 0.48094462857979303 0.1064908799890696 
0.17453229808121684 0.7274556432353456 0.2691605772453899 
0.6666630573120589 0.9481833667441004 0.3333358289945411 
0.8935185080665394 0.4809499287816543 0.4794296615675838 
0.7308277636749653 0.7274571085278425 0.9053701122932448 
