System
1.0
3.555239040239723 -0.0987719770760476 0.0
-1.8630470942918047 3.0296096514703477 0.0
0.0 0.0 8.457472900069543
Ho Sb
1 2
direct
0.0 0.0 0.0 
2.826376464885962e-17 0.5 0.2972632255689847 
0.49999999999999994 1.4474891851321354e-18 0.7027367744310152 
