System
1.0
7.343872799167652 -0.0241060921015274 -2.662191460604738
-3.7264131585837537 6.399094689137008 -2.4871175718260994
-0.0140383848865913 0.0241060930250067 7.8115005018124
V Zn P O
2 4 4 18
direct
9.446607545087824e-13 0.6005107317785353 0.6005107317781712 
9.44687424314673e-13 0.10051073177853512 0.10051073177817062 
0.2633912437057259 0.1483418836200327 0.6483418836204948 
0.4999999999999992 0.8849496399144507 0.1483418836204254 
0.49999999999933226 0.6483418836199424 0.3849496399142268 
0.7366087562936057 0.38494963991436204 0.884949639914157 
0.5000000000005229 0.3138654708931826 0.42735952095758944 
0.8865059499351828 0.8138654708932076 0.31386547089264377 
0.49999999999934275 0.927359520956706 0.8138654708923517 
0.11349405006468195 0.4273595209566813 0.9273595209572975 
0.0376348513353706 0.0166182259418056 0.324629587400416 
0.2876646860726663 0.6339877360219622 0.13398773602249509 
0.3080123614598059 0.3246295874027672 0.2869957360645685 
0.4999999999998572 0.1339877360218976 0.8463230499501162 
0.3080123614579787 0.7869957360644905 0.8246295874003443 
0.691987638540331 0.9789833746036447 0.01661822594179493 
0.49999999999995165 0.11690424567087321 0.3236504389444306 
0.712335313928603 0.8463230499513051 0.3463230499502822 
0.9623651486624746 0.4789833746035719 0.7869957360640139 
0.037634851337662346 0.8246295874028393 0.5166182259423499 
-2.3742841705728573e-12 0.42423935823518105 0.4242393582360973 
0.6919876385421591 0.5166182259419254 0.4789833746060145 
0.7932548067269022 0.6169042456709325 0.11690424567119258 
0.9623651486647662 0.2869957360646107 0.9789833746059434 
0.5000000000014125 0.3463230499513694 0.6339877360226613 
-2.374353180915801e-12 0.9242393582351814 0.9242393582360975 
0.20674519327378696 0.3236504389449807 0.8236504389444547 
0.5000000000007379 0.8236504389450401 0.6169042456712167 
