System
1.0
0.0 3.814957430767427 -0.0052616390003379
4.234847354039262 0.0 0.0
0.0 -0.0548946130838908 -7.236993777874965
Na Li N
3 3 2
direct
0.33464384553978554 0.5 0.4779543463619764 
0.653734493074888 0.0 0.6361308155583641 
0.592017187041925 0.5 0.1424307323082244 
0.988080978430199 0.0 0.27628016727774607 
0.4520588344794056 0.0 0.9746454360459711 
0.0197753709996975 0.5 0.83073319664554 
0.4843477297630066 0.0 0.285346568823356 
0.5173415606710953 0.5 0.8154787369788221 
