System
1.0
5.282527577038615 -9.149605405335652 0.0
5.282527283252739 9.149605574953013 0.0
0.0 0.0 9.476852770324655
Ge S I
8 12 8
direct
0.7148355833413335 0.542444541626928 0.2671365627110217 
0.827608958292325 0.2851644166814953 0.2671365627110217 
0.3333330000000032 0.6666669999999968 0.4324496360071923 
0.2851644166586672 0.4575554583730719 0.7328634372889778 
0.17239104170767514 0.7148355833185053 0.7328634372889778 
0.5424445416336577 0.8276089583084235 0.7328634372889778 
0.6666669999999968 0.3333330000000032 0.5675503639928078 
0.4575554583663418 0.1723910416915767 0.2671365627110217 
0.38564658398104107 0.8933288599017205 0.8224454808262848 
0.10667114008700027 0.4923177240397824 0.8224454808262848 
0.4923177240680486 0.3856465839414958 0.1775545191737151 
0.6143534160189585 0.10667114009827937 0.1775545191737151 
0.5076822759319513 0.6143534160585038 0.8224454808262848 
0.7186017228354153 0.560089800528571 0.5034292105361483 
0.439910199459118 0.1585119222677633 0.5034292105361483 
0.8414880777054669 0.28139827720366506 0.5034292105361483 
0.5600898005408824 0.8414880777322363 0.496570789463852 
0.15851192229453318 0.7186017227963347 0.496570789463852 
0.28139827716458465 0.4399101994714285 0.496570789463852 
0.8933288599129994 0.507682275960218 0.1775545191737151 
0.7781966269224357 0.7944442757699554 0.1810629137462584 
0.20555572421146454 -0.016247648894103177 0.1810629137462584 
0.2218033730775643 0.20555572423004462 0.8189370862537416 
-0.016247648866099567 0.7781966268758523 0.8189370862537416 
0.7944442757885353 0.01624764889410335 0.8189370862537416 
0.6666669999999968 0.3333330000000032 0.8340835304202655 
0.3333330000000032 0.6666669999999968 0.1659164695797343 
0.0162476488660996 0.2218033731241477 0.1810629137462584 
