System
1.0
3.2605761160677864 0.0229287062427686 5.561174400789035
1.527605918121705 2.880677379615393 5.561174405579947
0.0378108541530844 0.0229287047248526 6.4464399669047845
Ta S
1 2
direct
0.16669739959421898 0.1666973995942274 0.16669739959420427 
0.5850153165450918 0.5850153165460458 0.5850153165434103 
0.41528728386068353 0.4152872838597211 0.41528728386237906 
