System
1.0
5.885763730376385 0.0 0.0
0.0 6.4518286444631245 0.0
0.0 0.0 11.174191640551296
Ru Br
4 12
direct
0.7500047654616643 0.2500314968489063 0.5 
0.2500047654616639 0.7499685031510932 0.0 
0.2499952345383362 0.2500314968489063 0.5 
0.7499952345383355 0.7499685031510932 0.0 
0.0 0.9340952814105761 0.5 
0.5 0.0659047185894237 0.0 
0.5 0.5659553949877715 0.5 
0.0 0.4340446050122285 0.0 
0.0 0.4079755877413305 0.3420215050750068 
0.5 0.5920244122586693 0.1579784949249932 
0.0 0.4079755877413305 0.6579784949249932 
0.5 0.5920244122586693 0.8420215050750068 
0.0 0.9079335233135687 0.1579686120045446 
0.5 0.0920664766864315 0.3420313879954552 
0.0 0.9079335233135687 0.8420313879954555 
0.5 0.0920664766864315 0.6579686120045445 
