System
1.0
6.442878494333459 -0.4651727843743245 -0.6584837986371452
-3.605403127077259 5.359414311166332 0.657770956639586
-3.606609963521165 -1.1785948452624035 5.269063469372847
Mg Ag O
2 4 8
direct
0.2499905102644372 0.8995105820557487 0.1495366765902343 
0.7500193520662677 0.14953997279396564 0.8995097634044759 
-0.002207238101896087 -0.004634972155933833 0.49453661129118526 
0.5022001941350582 0.4967321881483631 0.49756983293931834 
0.5008233276384112 0.497564212315918 -0.004633154902849501 
-0.0008323727677745725 0.4945369877370362 0.4967294577331315 
0.11651924493529793 0.10191729816382124 0.8421310837179434 
0.7505750485853195 0.14786106384118386 0.258571800407905 
0.7493746753240396 0.5079349754913477 0.8972832377820592 
0.6106892778498969 0.2585785911646635 0.5079532287966473 
0.2598252623172717 0.48541677247576553 0.10194639023812388 
0.24023426677414447 0.8421724633920774 0.7255623650628883 
0.383451637707712 0.7255732532752166 0.48540311072106307 
0.8893378132718114 0.897296611300818 0.1478975962178799 
