System
1.0
5.544917540038246 -1.0979132e-09 -0.0
-2.7724577721473533 8.220123748037913 0.0
0.0 -0.0 11.37056661881628
Bi Se O
8 4 20
direct
0.4032533880599494 0.829983998737274 0.6129698120998274 
0.9032533880599491 0.829983998737274 0.38703018790017274 
0.0732693893228209 0.1700160012625385 0.6129698120998274 
0.24710356157827143 0.49999999999990363 0.8765801412954095 
0.7471035615782713 0.49999999999990363 0.12341985870459102 
0.7631263521047035 0.500000000000213 0.6156847004716534 
0.2631263521047032 0.500000000000213 0.3843152995283465 
0.5732693893228211 0.1700160012625385 0.38703018790017274 
0.8940580847829249 0.8279149027564429 0.8635318804320471 
0.0661431820265905 0.1720850972434834 0.1364681195679532 
0.39405808478292453 0.8279149027564429 0.1364681195679532 
0.566143182026591 0.1720850972434834 0.8635318804320471 
0.3446713040729878 0.2971865171379162 0.07310573174963281 
0.04748478693508144 0.7028134828621787 0.9268942682503671 
0.764081036928246 -1.153e-13 0.5 
0.2640810369282458 -1.153e-13 0.5 
0.4407253144983202 0.3114376742347839 0.7953404300169126 
0.1697472114693696 0.0994535756703652 0.2605250834113996 
0.07029363579954874 0.900546424329809 0.7394749165886002 
0.5474847869350815 0.7028134828621787 0.07310573174963281 
0.8446713040729883 0.2971865171379162 0.9268942682503671 
0.13880968847276948 0.5000000000000137 0.7005552493115135 
0.6388096884727699 0.5000000000000137 0.29944475068848664 
0.06201080447717378 0.6735551852695854 0.5063345064396106 
0.38845661920770064 0.3264448147304061 0.49366549356038925 
0.5620108044771737 0.6735551852695854 0.49366549356038925 
0.8884566192077006 0.3264448147304061 0.5063345064396106 
0.6292876402635408 0.6885623257652019 0.7953404300169126 
0.9407253144983204 0.3114376742347839 0.20465956998308782 
0.1292876402635409 0.6885623257652019 0.20465956998308782 
0.5702936357995493 0.900546424329809 0.2605250834113996 
0.6697472114693693 0.0994535756703652 0.7394749165886002 
