System
1.0
4.946369480596659 0.0 0.0
-0.0 5.46080606630552 0.0
0.0 0.0 12.48715583451928
Sb O
8 12
direct
0.9616390556601306 0.1774403419977601 0.8727662530127973 
0.4616390556601307 0.32255965800224007 0.1272337469872022 
0.5383609443398694 0.1774403419977601 0.6272337469872027 
0.0383609443398691 0.32255965800224007 0.372766253012798 
0.0383609443398691 0.8225596580022397 0.1272337469872022 
0.5383609443398694 0.6774403419977602 0.8727662530127973 
0.4616390556601307 0.8225596580022397 0.372766253012798 
0.9616390556601306 0.6774403419977602 0.6272337469872027 
0.6445607311784823 0.3488353108635012 0.9421322671765369 
0.1445607311784819 0.1511646891364988 0.0578677328234629 
0.1445607311784819 0.6511646891364993 0.4421322671765374 
0.6445607311784823 0.8488353108635006 0.5578677328234631 
0.3554392688215179 0.6511646891364993 0.0578677328234629 
0.25 0.4897547127012716 0.25 
0.75 0.5102452872987278 0.7499999999999999 
0.25 0.989754712701272 0.25 
0.3554392688215179 0.1511646891364988 0.4421322671765374 
0.75 0.0102452872987283 0.7499999999999999 
0.8554392688215176 0.8488353108635006 0.9421322671765369 
0.8554392688215176 0.3488353108635012 0.5578677328234631 
