System
1.0
4.165752914502769 0.0 0.0
0.0 4.165752914502769 0.0
0.0 0.0 5.429123685248533
Ti Se
2 2
direct
0.0 0.0 0.0 
0.5 0.5 0.0 
0.0 0.5 0.26560747802455104 
0.5 0.0 0.7343925219754489 
