System
1.0
5.961712064685393 1.46277457e-08 -1e-16
-2.9808565078791878 5.162993898908558 0.0
2e-16 3e-16 17.552016508738728
Ti Cl
6 18
direct
0.0 0.0 0.1669425371897958 
0.0 0.0 0.8330574628102035 
0.6666669999999967 0.3333330000000032 0.5 
0.33333300000000315 0.6666669999999967 0.8329960933182904 
0.33333300000000315 0.6666669999999967 0.5 
0.33333300000000315 0.6666669999999967 0.1670039066817093 
0.00731278559029543 0.6739070628444792 0.0867871460035312 
0.008184668481354681 0.6750830208903997 0.7526805425014993 
0.3249169791116532 0.9918153315165872 0.24731945749850057 
0.6665942772397773 0.6739070628589442 0.9132128539964686 
0.3415254758616837 0.0001620323909916 0.5803084062892906 
0.3249169790991198 0.33310064760755914 0.7526805425014993 
0.007312785602663582 0.3334057227333991 0.9132128539964686 
0.6668993523944989 0.675083020904991 0.24731945749850057 
-0.00016203241856592104 0.3413634434599953 0.5803084062892906 
0.6586365565568825 0.6584745241490131 0.5803084062892906 
0.6665942772645698 -0.0073127856067352 0.0867871460035312 
0.3260929371575521 -0.0073127855923359 0.9132128539964686 
0.008184668493852196 0.3331006475784173 0.24731945749850057 
0.3415254758489022 0.3413634434452166 0.41969159371070924 
0.6668993524195308 0.9918153315020366 0.7526805425014993 
0.6586365565441886 0.0001620324206506 0.41969159371070924 
-0.00016203239309049415 0.6584745241341331 0.41969159371070924 
0.326092937145128 0.3334057227622634 0.0867871460035312 
