System
1.0
0.0 4.580737499435035 0.0199368025073712
4.567462936653595 0.0 0.0
0.0 -0.8470302250050555 -8.082958541717655
Cr N
4 8
direct
0.1699616398571305 0.0165343185358518 0.6811625531028673 
0.8300383601428694 0.0165343185358518 0.3188374468971327 
0.40586698932174 0.41904651286081834 0.1892259765853634 
0.5941330106782599 0.41904651286081834 0.8107740234146368 
0.0792669140152786 0.24551150572073974 0.21436306495159238 
0.9207330859847214 0.24551150572073974 0.7856369350484075 
0.5 0.30102397393515085 1.6803385687877206e-19 
0.3920885443326498 0.2729284348979634 0.6238287557054617 
0.6079114556673504 0.2729284348979634 0.3761712442945384 
-6.183206690385099e-18 0.8630779001078787 0.5 
0.5722942784739369 0.7607687909631132 0.21752640494435826 
0.4277057215260636 0.7607687909631132 0.7824735950556418 
