System
1.0
3.479872205297024 0.0 0.0
0.0 9.94599711860867 0.0
0.0 0.0 14.479183198267433
Si P
8 16
direct
0.0 0.5894414775919951 0.8525551347015953 
0.0 0.4105585224080049 0.1474448652984054 
0.0 0.0894414775919951 0.6474448652984048 
0.0 0.9105585224080049 0.3525551347015944 
0.5 0.8066397790106895 0.7337836683090733 
0.5 0.1933602209893107 0.2662163316909265 
0.5 0.3066397790106898 0.7662163316909268 
0.5 0.6933602209893105 0.2337836683090732 
0.5 0.0472494276348404 0.38840780582276124 
0.5 0.9527505723651594 0.6115921941772379 
0.5 0.6106120606601911 0.3868859943881719 
0.5 0.3893879393398093 0.6131140056118278 
0.5 0.1106120606601908 0.1131140056118278 
0.5 0.8893879393398091 0.8868859943881723 
0.0 0.7286279233977999 0.4506629962999624 
0.0 0.8348232408586146 0.2043867583079187 
0.0 0.2286279233978001 0.0493370037000373 
0.0 0.7713720766022001 0.950662996299963 
0.5 0.4527505723651593 0.8884078058227621 
0.0 0.1651767591413855 0.7956132416920811 
0.0 0.3348232408586145 0.2956132416920812 
0.0 0.6651767591413854 0.704386758307919 
0.0 0.2713720766021998 0.5493370037000371 
0.5 0.5472494276348405 0.1115921941772387 
