System
1.0
8.585741853675788 -0.0 0.0
0.0 8.585741853675788 0.0
-0.0 0.0 8.585741853675788
Be Cd Si Se O
6 8 6 2 24
direct
0.25 0.5 0.0 
0.5 0.0 0.75 
0.5 0.0 0.25 
0.0 0.25 0.5 
0.0 0.75 0.5 
0.75 0.5 0.0 
0.324394176433785 0.324394176433785 0.6756058235662153 
0.1756058235662151 0.1756058235662151 0.1756058235662151 
0.6756058235662153 0.6756058235662153 0.6756058235662153 
0.8243941764337847 0.1756058235662151 0.8243941764337847 
0.8243941764337847 0.8243941764337847 0.1756058235662151 
0.6756058235662153 0.324394176433785 0.324394176433785 
0.324394176433785 0.6756058235662153 0.324394176433785 
0.1756058235662151 0.8243941764337847 0.8243941764337847 
0.0 0.5 0.25 
0.0 0.5 0.75 
0.25 0.0 0.5 
0.5 0.25 0.0 
0.5 0.75 0.0 
0.75 0.0 0.5 
0.0 0.0 0.0 
0.5 0.5 0.5 
0.3554255001609778 0.6443450262853884 0.068786747685572 
0.3556549737146116 0.068786747685572 0.6445744998390224 
0.068786747685572 0.3554255001609778 0.6443450262853884 
0.068786747685572 0.6445744998390224 0.3556549737146116 
0.6443450262853884 0.9312132523144281 0.6445744998390224 
0.9312132523144281 0.6445744998390224 0.6443450262853884 
0.6443450262853884 0.068786747685572 0.3554255001609778 
0.3556549737146116 0.9312132523144281 0.3554255001609778 
0.9312132523144281 0.3554255001609778 0.3556549737146116 
0.1443450262853885 0.8554255001609776 0.5687867476855719 
0.8556549737146116 0.1445744998390222 0.5687867476855719 
0.8554255001609776 0.4312132523144281 0.8556549737146116 
0.5687867476855719 0.1443450262853885 0.8554255001609776 
0.1445744998390222 0.5687867476855719 0.8556549737146116 
0.1445744998390222 0.4312132523144281 0.1443450262853885 
0.3554255001609778 0.3556549737146116 0.9312132523144281 
0.1443450262853885 0.1445744998390222 0.4312132523144281 
0.8556549737146116 0.8554255001609776 0.4312132523144281 
0.5687867476855719 0.8556549737146116 0.1445744998390222 
0.4312132523144281 0.8556549737146116 0.8554255001609776 
0.8554255001609776 0.5687867476855719 0.1443450262853885 
0.6445744998390224 0.3556549737146116 0.068786747685572 
0.4312132523144281 0.1443450262853885 0.1445744998390222 
0.6445744998390224 0.6443450262853884 0.9312132523144281 
