System
1.0
2.081005518133423 -3.6044071654857395 0.0
2.0810048095936584 3.604407574561285 -0.0
0.0 -1e-16 4.637117894319156
Cr N
3 6
direct
0.35774406141929044 0.3885176357189386 0.0016346643854518 
0.030773574294406233 0.6422559385693091 0.3349676643854549 
0.6114823642863033 0.9692264257117525 0.6683016643854488 
0.1894335167588194 0.3481840026129027 0.5799276406481088 
0.1587494858476586 0.810566483237592 0.9132606406481047 
0.6518159973935179 0.8412505141495104 0.246593640648108 
0.3376003610414647 0.18822304814848212 0.4184706949664413 
0.8117769518518437 0.14937731288816042 0.0851376949664454 
0.8506226871066843 0.6623996389633642 0.7518046949664422 
