System
1.0
5.224129349534745 0.5680117168698917 -2.432646343220408
-3.266558604476761 4.698960244523168 -0.8839134350865819
0.3948620979760705 -0.5680117644328403 5.749207017190425
K V O
3 1 4
direct
0.9999990000000025 0.49999999999999994 0.49999999999999994 
0.5000009999999975 0.2500009999999974 0.7499999999999999 
0.5000009999999976 0.75 0.25000000000000006 
0.0 0.0 0.0 
0.6905733358542578 0.9874125614957217 0.9874115615482632 
0.9999990001510758 0.01258743854530521 0.7031607745335234 
0.9999990000682148 0.7031597745164566 0.012588438506017274 
0.3094266639264572 0.29683922544251173 0.2968392254121962 
