System
1.0
7.071506676500067 -1.3846364756e-06 1e-16
-3.5357523749101194 6.1241049697880925 -1e-16
1e-16 -1e-16 4.1210249561774015
In Si Te
1 1 3
direct
0.33333300000000315 0.6666669999999968 0.7081182224814812 
0.0 0.0 0.2080108959448418 
0.35540457956953553 0.3411423847080599 0.20802129385789309 
0.6588576152907097 0.014263194860125098 0.20802129385789309 
0.985736805139757 0.6445954204318127 0.20802129385789309 
