System
1.0
8.663077035013323 0.0 0.0
0.0 8.663077035013323 0.0
0.0 0.0 7.3261808736367255
Sr Cu N
12 6 10
direct
0.0 0.0 0.49993825691782573 
0.0 0.0 -6.174308217450001e-05 
0.0 0.5 0.024009018255373004 
0.5 0.0 0.524009018255373 
0.2655085892353372 0.3034068470423287 0.711602782873915 
0.7344914107646624 0.6965931529576713 0.711602782873915 
0.6965931529576713 0.2655085892353372 0.211602782873915 
0.3034068470423287 0.7344914107646624 0.211602782873915 
0.6965931529576713 0.7344914107646624 0.211602782873915 
0.7344914107646624 0.3034068470423287 0.711602782873915 
0.2655085892353372 0.6965931529576713 0.711602782873915 
0.3034068470423287 0.2655085892353372 0.211602782873915 
0.0 0.6411712049869067 0.4333741944303592 
0.6411712049869067 0.0 0.9333741944303591 
0.3588287950130934 0.0 0.9333741944303591 
0.5 0.5 0.472936312643394 
0.5 0.5 0.9729363126433936 
0.0 0.3588287950130934 0.4333741944303592 
0.2864865093261022 0.5 0.9856825396091398 
0.0 0.5 0.633673821127768 
0.5 0.0 0.13367382112776824 
0.0 0.7806357885041849 0.23760849574049303 
0.7806357885041849 0.0 0.7376084957404929 
0.21936421149581542 0.0 0.7376084957404929 
0.0 0.21936421149581542 0.23760849574049303 
0.5 0.7135134906738977 0.48568253960913993 
0.7135134906738977 0.5 0.9856825396091398 
0.5 0.2864865093261022 0.48568253960913993 
