System
1.0
7.32139899564797 0.0183952296937775 -0.0
-3.1574304395795316 6.605591283282116 -0.0
0.0 -0.0 8.788338413059497
Ag Sb S
10 2 8
direct
0.5594941883729979 0.8049797658866996 0.488938519890364 
0.8685415945577429 0.7447631084146398 0.6693566788896492 
0.44050581162700203 0.19502023411330016 0.9889385198903645 
0.8577212205022059 0.1422787794987225 0.831654648207192 
0.14227877949779388 0.8577212205012766 0.3316546482071914 
0.2552368915861176 0.13145840544203696 0.6693566788896492 
0.7447631084138826 0.8685415945579621 0.1693566788896493 
0.19502023411408917 0.440505811627959 0.488938519890364 
0.1314584054422566 0.2552368915853605 0.1693566788896493 
0.804979765885911 0.5594941883720417 0.9889385198903645 
0.32580910958085413 0.674190890418419 0.8984798165724132 
0.6741908904191455 0.3258091095815803 0.3984798165724134 
0.4996621066407298 0.9674232858163241 0.7256319237113987 
0.5003378933592705 0.032576714183676296 0.2256319237113985 
0.028752148965328954 0.9712478510334961 0.9786947866085642 
0.971247851034671 0.0287521489665037 0.47869478660856507 
0.5160618434258838 0.48393815657385547 0.7978195036290094 
0.48393815657411476 0.5160618434261439 0.2978195036290092 
0.032576714184125416 0.5003378933595377 0.7256319237113987 
0.9674232858158748 0.4996621066404621 0.2256319237113985 
