System
1.0
8.508014652187986 0.0 -0.0
-0.0 8.508014652187986 0.0
-0.0 0.0 6.031937658045477
Mg Sb O
4 8 16
direct
0.5 0.0 0.25 
0.0 0.5 0.7500000000000001 
0.5 0.0 0.7500000000000001 
0.0 0.5 0.25 
0.17291344242447113 0.1641369080343344 0.5 
0.8270865575755291 0.8358630919656657 0.5 
0.8358630919656657 0.17291344242447113 0.0 
0.6641369080343343 0.672913442424471 0.0 
0.672913442424471 0.3358630919656655 0.5 
0.3270865575755289 0.6641369080343343 0.5 
0.3358630919656655 0.3270865575755289 0.0 
0.1641369080343344 0.8270865575755291 0.0 
0.6761096752758519 0.1761096752758519 0.25 
0.8238903247241482 0.6761096752758519 0.25 
0.3238903247241482 0.8238903247241482 0.7500000000000001 
0.3238903247241482 0.8238903247241482 0.25 
0.8238903247241482 0.6761096752758519 0.7500000000000001 
0.1761096752758519 0.3238903247241482 0.7500000000000001 
0.4015238830851742 0.1357980583862151 0.5 
0.0984761169148257 0.6357980583862152 0.5 
0.6357980583862152 0.9015238830851742 0.0 
0.8642019416137848 0.4015238830851742 0.0 
0.1357980583862151 0.5984761169148259 0.0 
0.9015238830851742 0.3642019416137848 0.5 
0.1761096752758519 0.3238903247241482 0.25 
0.3642019416137848 0.0984761169148257 0.0 
0.5984761169148259 0.8642019416137848 0.5 
0.6761096752758519 0.1761096752758519 0.7500000000000001 
