System
1.0
2.130549864699482 -3.6902211877635493 0.0
2.130549864699482 3.6902211877635493 0.0
0.0 0.0 7.830885863779363
Na Mn Te
1 1 2
direct
0.0 0.0 0.0313594710250481 
0.3333330000000032 0.6666669999999968 0.6031407232679291 
0.3333330000000032 0.6666669999999968 0.2813687931859647 
0.6666669999999968 0.3333330000000032 0.750131012521062 
