System
1.0
6.328766065831942 0.0 0.0
0.0 7.366555161611004 0.0
0.0 0.0 8.031458978862615
Nb Ni Te
4 4 8
direct
0.7500007625222533 0.462612108942806 0.956147403361774 
0.24999923747774652 0.462612108942806 0.0438525966382259 
0.24999923747774652 0.462612108942806 0.456147403361774 
0.7500007625222533 0.462612108942806 0.543852596638226 
0.10725784137785381 0.3437022731445474 0.75 
0.8927421586221462 0.3437022731445474 0.25 
0.39271271177298267 0.5815187142198505 0.75 
0.6072872882270169 0.5815187142198505 0.25 
0.9974933697792198 0.6859385958364731 0.75 
0.0025066302207807003 0.6859385958364731 0.25 
0.0 0.1439414615285134 0.0 
0.0 0.1439414615285134 0.5 
0.5024990753402284 0.2392933660104177 0.75 
0.49750092465977164 0.2392933660104177 0.25 
0.5 0.7812803713745858 0.0 
0.5 0.7812803713745858 0.5 
