System
1.0
0.0 5.680002163779389 -1.49990029478e-05
5.729153904916642 0.0 0.0
0.0 -2.20005357438e-05 -7.937243733586862
Li V Si O
2 4 4 16
direct
0.6857377885079565 0.5 0.24999900000000252 
0.31426221149204336 0.5 0.7500009999999976 
0.0 0.2734912866015907 0.0 
3.3942987287134654e-23 0.7265077133984117 0.5000000000000001 
0.7213854694038422 0.0 0.25000000000000006 
0.2786145305961581 0.0 0.7500000000000001 
0.23885878713886424 0.7557023914235594 0.12113572143687151 
0.23885878713886424 0.2442966085764432 0.3788652785631261 
0.7611412128611361 0.2442966085764432 0.621134721436874 
0.7611412128611361 0.7557023914235594 0.8788642785631287 
0.4851658812384307 0.2331721854555789 0.27227124878845954 
0.2288431141766186 0.0082219918063031 0.5052172302311994 
0.2288441141766231 0.9917770081936925 0.9947837697687982 
0.23017410336245542 0.5135577341742864 0.010280764673322403 
0.2301741033624551 0.4864412658257161 0.48972023532667514 
0.4851648812384333 0.7668288145444186 0.22772975121154512 
0.5148351187615668 0.7668288145444186 0.7722702487884552 
0.7711568858233817 0.0082219918063031 0.4947827697688005 
0.7698258966375446 0.5135577341742864 0.9897192353266777 
0.7698258966375447 0.4864412658257161 0.510279764673325 
0.771155885823377 0.9917770081936925 0.005216230231202001 
0.0037795586475578005 0.2373825373602713 0.24817961402826433 
0.9962214413524396 0.7626174626397286 0.7481796140282644 
0.9962204413524423 0.2373825373602713 0.751820385971736 
0.5148341187615694 0.2331721854555789 0.7277287512115405 
0.0037785586475605 0.7626174626397286 0.25182038597173567 
