System
1.0
4.0004275372903075 0.0 0.0
0.0 7.022152400115061 0.0
0.0 0.0 11.579312536999753
Au Se O
4 4 14
direct
0.4998640086127086 0.1931234538528604 0.0646954756368479 
0.4998640086127086 0.3068765461471394 0.5646954756368476 
0.4998640086127086 0.6931234538528604 0.4353045243631519 
0.4998640086127086 0.8068765461471396 0.9353045243631523 
0.232127200159755 0.106865642033911 0.3267074762741093 
0.232127200159755 0.8931343579660892 0.6732925237258905 
0.232127200159755 0.3931343579660887 0.8267074762741095 
0.232127200159755 0.6068656420339108 0.1732925237258906 
0.4883929982225952 0.9650623434417285 0.7894115627942839 
0.4883929982225952 0.0349376565582714 0.2105884372057164 
0.5696169671038671 0.8393861067252182 0.582679542686876 
0.8104784863913729 0.5 0.5 
0.5696169671038671 0.3393861067252178 0.9173204573131238 
0.4883929982225952 0.4650623434417285 0.710588437205716 
0.4883929982225952 0.5349376565582715 0.2894115627942836 
0.1399600827053905 0.3770492331776663 0.1264664067568678 
0.1399600827053905 0.6229507668223339 0.8735335932431322 
0.1399600827053905 0.1229507668223337 0.6264664067568678 
0.1399600827053905 0.8770492331776661 0.3735335932431323 
0.8104784863913729 0.0 0.0 
0.5696169671038671 0.6606138932747818 0.0826795426868759 
0.5696169671038671 0.1606138932747821 0.4173204573131244 
