System
1.0
3.596549573488389 0.0 0.0
0.0 5.896406209685113 0.0
0.0 0.0 11.540510738192589
Hg Te O
4 2 6
direct
0.048815082327703804 0.8142079556294175 0.9401701889120168 
0.048815082327703804 0.1857920443705822 0.0598298110879834 
0.048815082327703804 0.1857920443705822 0.4401701889120166 
0.048815082327703804 0.8142079556294175 0.5598298110879832 
0.4630090140599386 0.5571608465898253 0.25 
0.4630090140599386 0.44283915341017455 0.75 
0.0941325795215691 0.5344083415160712 0.37390268851145264 
0.0941325795215691 0.46559165848392864 0.6260973114885477 
0.0941325795215691 0.46559165848392864 0.8739026885114523 
0.0941325795215691 0.5344083415160712 0.1260973114885476 
0.5579946622415167 0.24362582442740238 0.25 
0.5579946622415167 0.7563741755725976 0.75 
