System
1.0
6.5758462450766935 8.5239e-12 2.0827951233877346
2.064097275677763 10.071400118363629 4.905283440260953
0.0098433152427938 0.0009363573011808 11.391018170922752
Na Dy Mo P O
8 4 4 4 32
direct
0.8360324049870052 0.20577205273388877 0.6023259498842523 
0.33603240498700526 0.10232594988425221 0.7057720527338888 
0.35586959239486077 0.7057720527338888 0.10232594988425224 
0.8558695923948607 0.6023259498842524 0.20577205273388874 
0.14413040760513898 0.3976740501157478 0.7942279472661113 
0.644130407605139 0.29422794726611134 0.8976740501157477 
0.16396759501299468 0.7942279472661115 0.3976740501157478 
0.6639675950129946 0.8976740501157477 0.29422794726611123 
0.75 0.3204300561004805 0.1795699438995196 
0.24999999999999992 0.6795699438995195 0.8204300561004806 
0.24999999999999994 0.1795699438995196 0.3204300561004805 
0.7499999999999999 0.8204300561004806 0.6795699438995196 
0.8211924744788648 0.9288075255211351 0.9288075255211349 
0.6788075255211348 0.5711924744788652 0.5711924744788652 
0.17880752552113488 0.0711924744788651 0.07119247447886512 
0.32119247447886506 0.4288075255211349 0.42880752552113494 
0.7499999999999999 0.5677608938418484 0.9322391061581518 
0.25 0.4322391061581517 0.0677608938418483 
0.24999999999999992 0.9322391061581519 0.5677608938418482 
0.7499999999999999 0.0677608938418483 0.43223910615815175 
0.41830438069964954 0.8600517230788561 0.6544061359169276 
0.6673898672549253 0.8931369795882469 0.850846614130817 
0.8079871315495735 0.4231412913935671 0.9392994539866346 
0.2314629628485231 0.6024926941176943 0.36178935141246765 
0.33261013274507456 0.10686302041175332 0.14915338586918314 
0.26853703715147687 0.13821064858753243 0.8975073058823055 
0.19574400837868758 0.8975073058823059 0.13821064858753246 
0.1920128684504263 0.576858708606433 0.06070054601336552 
0.7685370371514767 0.3975073058823057 0.6382106485875324 
0.06723676030456216 0.36005172307885613 0.1544061359169276 
0.41137446097399355 0.6068630204117532 0.6491533858691831 
0.0816956193003505 0.8455938640830725 0.6399482769211438 
0.17042687692977776 0.07685870860643292 0.5607005460133655 
0.6957440083786878 0.6382106485875324 0.39750730588230576 
0.0886255390260064 0.8508466141308171 0.8931369795882468 
0.9183043806996493 0.15440613591692762 0.36005172307885613 
0.731462962848523 0.8617893514124677 0.10249269411769425 
0.8295731230702221 0.9231412913935672 0.43929945398663467 
0.5886255390260063 0.3931369795882468 0.35084661413081686 
0.9113744609739933 0.1491533858691831 0.10686302041175334 
0.567236760304562 0.6544061359169278 0.8600517230788561 
0.6920128684504262 0.5607005460133655 0.07685870860643289 
0.9327632396954376 0.639948276921144 0.8455938640830724 
0.30425599162131217 0.36178935141246776 0.6024926941176943 
0.804255991621312 0.1024926941176943 0.8617893514124676 
0.3079871315495735 0.43929945398663467 0.9231412913935669 
0.1673898672549253 0.350846614130817 0.3931369795882468 
0.6704268769297775 0.06070054601336551 0.5768587086064331 
0.329573123070222 0.9392994539866346 0.42314129139356715 
0.5816956193003503 0.13994827692114392 0.3455938640830724 
0.4327632396954378 0.34559386408307247 0.13994827692114395 
0.8326101327450744 0.649153385869183 0.6068630204117532 
