System
1.0
5.068489493217236 0.0 0.0
0.0 5.068489493217236 0.0
0.0 0.0 3.4474134914532804
Te O
2 4
direct
0.0 0.0 0.0 
0.5 0.5 0.5 
0.3030669750223855 0.3030669750223855 0.0 
0.8030669750223853 0.1969330249776145 0.5 
0.1969330249776145 0.8030669750223853 0.5 
0.6969330249776147 0.6969330249776147 0.0 
