System
1.0
5.904892071146628 0.0 0.0
0.0 5.904892071146628 0.0
0.0 0.0 8.245128594082033
Li Ti Co O
4 4 4 16
direct
0.0 0.22708569390494981 0.0 
0.0 0.7729143060950504 0.5 
0.22708569390494981 0.0 0.25 
0.7729143060950504 0.0 0.75 
0.2233286675266946 0.5 0.25 
0.5 0.2233286675266946 0.0 
0.5 0.7766713324733052 0.5 
0.7766713324733052 0.5 0.75 
0.7441197473772582 0.7441197473772582 0.125 
0.7441197473772582 0.255880252622742 0.375 
0.255880252622742 0.7441197473772582 0.875 
0.255880252622742 0.255880252622742 0.6250000000000001 
0.7365381486407108 0.9895126093801586 0.4950774039882099 
0.7365381486407108 0.0104873906198413 0.004922596011789901 
0.7370537238295832 0.48673536816788276 0.9879074267559946 
0.7370537238295832 0.5132646318321172 0.5120925732440054 
0.5132646318321172 0.7370537238295832 0.7379074267559947 
0.5132646318321172 0.2629462761704167 0.7620925732440054 
0.48673536816788276 0.7370537238295832 0.26209257324400526 
0.0104873906198413 0.7365381486407108 0.2450774039882102 
0.2629462761704167 0.5132646318321172 0.4879074267559948 
0.2629462761704167 0.48673536816788276 0.0120925732440053 
0.2634618513592893 0.9895126093801586 0.50492259601179 
0.2634618513592893 0.0104873906198413 0.99507740398821 
0.9895126093801586 0.2634618513592893 0.74507740398821 
0.0104873906198413 0.2634618513592893 0.2549225960117901 
0.48673536816788276 0.2629462761704167 0.23790742675599472 
0.9895126093801586 0.7365381486407108 0.75492259601179 
