System
1.0
2.4915391515904 -4.315471596318134 0.0
2.4915391515904 4.315471596318134 0.0
0.0 0.0 7.287449287838504
Rh F
3 9
direct
0.6666669999999968 0.3333330000000032 0.3398389993308434 
0.3333330000000032 0.6666669999999968 0.660161000669156 
0.0 0.0 0.0 
0.666675946544234 0.9625845029769733 0.8215467480023884 
0.03741549701797865 0.7040914435543927 0.8215467480023884 
0.2959085564377876 0.33332405346863436 0.8215467480023884 
0.6509944193578918 0.6509944193578918 0.5 
0.3490055806491785 -7.070183449206356e-12 0.5 
-7.070183449206356e-12 0.3490055806491785 0.5 
0.9625845029769733 0.666675946544234 0.17845325199761122 
0.33332405346863436 0.2959085564377876 0.17845325199761122 
0.7040914435543927 0.03741549701797865 0.17845325199761122 
