System
1.0
8.79035550760105 -0.0353009222167864 0.0365189391555694
0.0362203470379327 8.79035183143239 0.0365189289985383
-0.0355897597734777 -0.0353009271127477 8.79035867473398
K Mn Cl
8 2 12
direct
0.0 0.0 0.0 
0.5 0.5000000000000001 0.5 
-3.789285995896064e-19 -3.518684707073353e-19 0.49999999999999994 
0.5 1.4767724394921564e-19 2.8754794046921795e-20 
1.5042349630139692e-19 0.5 2.8754794046921795e-20 
0.5 0.5 5.750958809384359e-20 
-5.2522231274984145e-19 0.5 0.4999999999999999 
0.5 -5.923822921660836e-19 0.4999999999999999 
0.25 0.25000000000000006 0.25 
0.7499999999999999 0.75 0.7499999999999999 
0.25002569893005555 0.2500256989293617 0.9582840403448513 
0.7500256989300557 0.7500256989293618 0.4582840403448514 
0.5417159596573354 0.24997430107034274 0.24997430107004778 
0.24997430107039686 0.5417159596575791 0.24997430107079588 
0.24997430106994442 0.2499743010706382 0.5417159596551486 
0.7499743010703968 0.0417159596575791 0.7499743010707959 
0.7499743010699443 0.7499743010706381 0.04171595965514859 
0.0417159596573356 0.7499743010703426 0.7499743010700476 
0.4582840403426641 0.7500256989296572 0.7500256989299524 
0.750025698929603 0.4582840403424209 0.7500256989292039 
0.9582840403426643 0.2500256989296573 0.2500256989299521 
0.250025698929603 0.958284040342421 0.2500256989292041 
