System
1.0
4.711647027323116 -0.0 -0.0
-2.355823513661558 4.080405972032256 0.0
0.0 -0.0 5.1833284444844105
Be F
3 6
direct
0.4604346412773899 0.0 0.3333330000000032 
1.4316184822300744e-12 0.4604346412802532 0.6666669999999968 
0.5395653587211787 0.5395653587197469 0.0 
0.4113679676571934 0.2820987857392068 0.2249495179654882 
0.7179012142603769 0.1292691819234351 0.5582825179654843 
0.8707308180824296 0.5886320323373581 0.8916165179654849 
0.12926918191798642 0.717901214260793 0.4417174820345157 
0.588632032336942 0.8707308180765652 0.1083834820345149 
0.2820987857450717 0.4113679676626419 0.7750504820345119 
