System
1.0
3.7075014305641876 -2.26966165e-08 1.1156071172530142
1.8309083206205177 5.030221072423225 0.6337143412007359
0.4035551660444619 0.0077149336813938 5.377245718764826
K O
2 4
direct
0.49999999999999994 0.5 0.5 
0.0 0.0 0.0 
0.1561199838793464 0.045240402374665 0.4547317512155186 
0.15609213721469517 0.4547595976913145 0.04526824889996901 
0.8439078627853053 0.5452404023086852 -0.04526824889996901 
0.8438800161206537 0.9547595976253357 0.5452682487844819 
