System
1.0
3.5168185256006996 -6.091308975934119 0.0
3.5168185256006996 6.091308975934119 0.0
0.0 0.0 3.9417653675937196
Dy Mn Ga Si
3 3 2 1
direct
0.4078863521745033 5.589054060060621e-13 0.0 
0.5921136478249379 0.5921136478249379 0.0 
5.589054060060621e-13 0.4078863521745033 0.0 
0.2183254432708891 0.2183254432708891 0.5 
7.355849346358385e-13 0.7816745567283754 0.5 
0.7816745567283754 7.355849346358385e-13 0.5 
0.6666669999999968 0.3333330000000032 0.5 
0.3333330000000032 0.6666669999999968 0.5 
0.0 0.0 0.0 
