System
1.0
5.283147578656022 0.0 0.0
0.0 5.361282236399859 0.0
0.0 0.0 5.3614029000485095
Ce Zr O
2 2 8
direct
0.0 0.0 0.0 
0.0 0.5 0.5 
0.5 0.0 0.5 
0.5 0.5 0.0 
0.7437164503193401 0.7860174130343025 0.7139947197664124 
0.7437164503193401 0.2860174130342947 0.7860052802335877 
0.7437164503193401 0.2139825869657045 0.2860052802335888 
0.7437164503193401 0.7139825869656976 0.21399471976641082 
0.25628354968066 0.2139825869657045 0.7139947197664124 
0.25628354968066 0.7139825869656976 0.7860052802335877 
0.25628354968066 0.7860174130343025 0.2860052802335888 
0.25628354968066 0.2860174130342947 0.21399471976641082 
