System
1.0
3.0027758656725014 -5.200960421372958 0.0
3.0027757138808964 5.200960509009877 0.0
0.0 0.0 6.370268570945714
B Cl
2 6
direct
0.3333330000000032 0.6666669999999967 0.25 
0.6666669999999968 0.33333300000000315 0.7500000000000001 
0.05181702484124052 0.36832659342566076 0.25 
0.6834904314406544 0.05181702481251633 0.7500000000000001 
0.36832659340058627 0.31650956861314455 0.7500000000000001 
0.6316734065994137 0.6834904313868557 0.25 
0.31650956855934576 0.9481829751874832 0.25 
0.9481829751587594 0.6316734065743393 0.7500000000000001 
