System
1.0
0.0 -2.4656549783306594 -0.0
2.134053682829478 -1.2328274891653297 0.0002190219145113
0.0003887788285877 -1.2328274891653297 3.3738265966710115
C
2
direct
0.1666839566396017 0.6666238902270155 0.5000041964937765 
0.8333120433603942 0.333376109772984 0.4999958035062234 
