System
1.0
4.363436970792343 0.0 0.0
0.0 4.843034722923716 0.0
0.0 0.0 5.403605492517457
Ge O
4 8
direct
0.5 0.25 0.6587562525514851 
0.0 0.75 0.8412437474485148 
0.5 0.75 0.3412437474485148 
0.0 0.25 0.1587562525514851 
0.7674655186708463 0.5788849219252878 0.11212872672172479 
0.2674655186708462 0.42111507807471193 0.3878712732782751 
0.7325344813291538 0.0788849219252881 0.3878712732782751 
0.23253448132916074 0.9211150780747123 0.11212872672172479 
0.7674655186708463 0.0788849219252881 0.8878712732782751 
0.2674655186708462 0.9211150780747123 0.6121287267217248 
0.7325344813291538 0.5788849219252878 0.6121287267217248 
0.23253448132916074 0.42111507807471193 0.8878712732782751 
