System
1.0
-2.516360412294349 -1.402137434389544 0.4365354603399676
0.0022211190011254 2.8722473916313924 -0.4250086247487859
0.8280405445855796 1.431034315287138 -9.48677611008673
V O
2 4
direct
0.0311770551536675 0.012638823568606124 0.5019366340885474 
-0.035290990691553295 -0.016748263892717 0.0019578884922868 
0.5944816106333742 0.404674879269134 0.393520358176955 
0.7363246907267238 0.26448933315302 0.1108922981845757 
0.4008415532289727 0.5969570826753248 0.6107335663914982 
0.2591410809488141 0.736427145226631 0.8934182546661366 
