Surf-mp-2815
1.0
1.595158 -2.762894 0.000000
1.595158 2.762894 0.000000
0.000000 0.000000 34.879004
Mo S
1 2
direct
0.666667 0.333333 0.106647 Mo
0.333333 0.666667 0.061781 S
0.333333 0.666667 0.151514 S
