Surf-mp-1821
1.0
1.663535 -2.881326 0.000000
1.663535 2.881326 0.000000
0.000000 0.000000 35.068951
W Se
1 2
direct
0.666667 0.333333 0.107424 W
0.333333 0.666667 0.059483 Se
0.333333 0.666667 0.155364 Se
