AgBiCl2S
1.0
3.8873595209713425 0.0 0.0
0.0 10.00731687655214 0.0
0.0 0.0 25.921726
Ag Bi Cl S
2 2 4 2
direct
0.0 0.5 0.5
0.0 0.0 0.5
0.5 0.25 0.5922081330590848
0.5 0.75 0.4077918669409148
0.5 0.4824916193598414 0.4176192511763474
0.5 0.5175083806401582 0.5823807488236531
0.5 0.9824916193598418 0.5823807488236531
0.5 0.0175083806401587 0.4176192511763474
-0.0 0.25 0.523940762853063
0.0 0.75 0.4760582371469328
