Surf-BN                     
   1.00000000000000     
     1.2552097469245334   -2.1740875813861682    0.0000000000000000
     1.2552097469245334    2.1740875813861682    0.0000000000000000
     0.0000000000000000    0.0000000000000000   30.7072649999999996
   B    N 
     1     1
Direct
  0.6666669999999968  0.3333330000000032  0.0627479999999991
  0.3333330000000032  0.6666669999999968  0.0627479999999991
 
  0.00000000E+00  0.00000000E+00  0.00000000E+00
  0.00000000E+00  0.00000000E+00  0.00000000E+00

