bulk@mp_149
1.0
3.364150 -0.000000 1.942293
1.121383 3.171752 1.942293
-0.000000 -0.000000 3.884586
Si
2
direct
0.875000 0.875000 0.875000 Si
0.125000 0.125000 0.125000 Si

0.000000 0.000000 0.000000
0.000000 0.000000 0.000000
