bulk@JVASP-1067_mp-541837
1.0
4.113792 0.008072 9.142179
1.968617 3.612187 9.142179
0.013562 0.008072 10.025095
Bi Se
2 3
direct
0.399996 0.399996 0.399996 Bi
0.600004 0.600004 0.600004 Bi
0.000000 0.000000 0.000000 Se
0.212772 0.212772 0.212772 Se
0.787228 0.787228 0.787228 Se

0.000000 0.000000 0.000000
0.000000 0.000000 0.000000
0.000000 0.000000 0.000000
0.000000 0.000000 0.000000
0.000000 0.000000 0.000000
